*SPEF "ieee 1481-1999"
*DESIGN "alu_top"
*DATE "11:11:11 Fri 11 11, 1111"
*VENDOR "OpenRCX"
*PROGRAM "Parallel Extraction"
*VERSION "1.0"
*DESIGN_FLOW "NAME_SCOPE LOCAL" "PIN_CAP NONE"
*DIVIDER /
*DELIMITER :
*BUS_DELIMITER []
*T_UNIT 1 NS
*C_UNIT 1 PF
*R_UNIT 1 OHM
*L_UNIT 1 HENRY

*NAME_MAP
*1 A[0]
*2 A[1]
*3 A[2]
*4 A[3]
*5 B[0]
*6 B[1]
*7 B[2]
*8 B[3]
*9 Carry
*12 Y[0]
*13 Y[1]
*14 Y[2]
*15 Y[3]
*16 Zero
*17 clk
*18 rst
*19 _000_
*20 _001_
*21 _002_
*22 _003_
*23 _004_
*24 _005_
*25 _006_
*26 _007_
*27 _008_
*28 _009_
*29 _010_
*30 _011_
*31 _012_
*32 _013_
*33 _014_
*34 _015_
*35 _016_
*36 _017_
*37 _018_
*38 _019_
*39 _020_
*40 _021_
*41 _022_
*42 _023_
*43 _024_
*44 _025_
*45 _026_
*46 _027_
*47 _028_
*48 _029_
*49 _030_
*50 _031_
*51 _032_
*52 _033_
*53 _034_
*54 _035_
*55 _036_
*56 _037_
*57 _038_
*58 _039_
*59 _040_
*60 _041_
*61 _042_
*62 _043_
*63 _044_
*64 _045_
*65 _046_
*66 _047_
*67 _048_
*68 _049_
*69 _050_
*70 _051_
*71 _052_
*72 _053_
*73 _054_
*74 _055_
*75 _056_
*76 _057_
*77 _058_
*78 _059_
*79 _060_
*80 _061_
*81 _062_
*82 _063_
*83 _064_
*84 _065_
*85 _066_
*86 _067_
*87 _068_
*88 _069_
*89 _070_
*90 alu\.sel\[0\]
*91 alu\.sel\[1\]
*92 alu\.sel\[2\]
*93 clknet_0_clk
*94 clknet_1_0__leaf_clk
*95 clknet_1_1__leaf_clk
*96 net1
*97 net10
*98 net11
*99 net12
*100 net13
*101 net14
*102 net15
*103 net16
*104 net17
*105 net2
*106 net3
*107 net4
*108 net5
*109 net6
*110 net7
*111 net8
*112 net9
*113 FILLER_0_0_109
*114 FILLER_0_0_113
*115 FILLER_0_0_125
*116 FILLER_0_0_137
*117 FILLER_0_0_141
*118 FILLER_0_0_153
*119 FILLER_0_0_165
*120 FILLER_0_0_173
*121 FILLER_0_0_185
*122 FILLER_0_0_193
*123 FILLER_0_0_197
*124 FILLER_0_0_209
*125 FILLER_0_0_21
*126 FILLER_0_0_221
*127 FILLER_0_0_225
*128 FILLER_0_0_237
*129 FILLER_0_0_249
*130 FILLER_0_0_253
*131 FILLER_0_0_265
*132 FILLER_0_0_27
*133 FILLER_0_0_277
*134 FILLER_0_0_281
*135 FILLER_0_0_29
*136 FILLER_0_0_293
*137 FILLER_0_0_305
*138 FILLER_0_0_309
*139 FILLER_0_0_321
*140 FILLER_0_0_333
*141 FILLER_0_0_337
*142 FILLER_0_0_349
*143 FILLER_0_0_361
*144 FILLER_0_0_365
*145 FILLER_0_0_383
*146 FILLER_0_0_391
*147 FILLER_0_0_393
*148 FILLER_0_0_405
*149 FILLER_0_0_41
*150 FILLER_0_0_417
*151 FILLER_0_0_421
*152 FILLER_0_0_433
*153 FILLER_0_0_445
*154 FILLER_0_0_449
*155 FILLER_0_0_461
*156 FILLER_0_0_473
*157 FILLER_0_0_477
*158 FILLER_0_0_489
*159 FILLER_0_0_501
*160 FILLER_0_0_505
*161 FILLER_0_0_517
*162 FILLER_0_0_529
*163 FILLER_0_0_53
*164 FILLER_0_0_533
*165 FILLER_0_0_545
*166 FILLER_0_0_557
*167 FILLER_0_0_561
*168 FILLER_0_0_57
*169 FILLER_0_0_573
*170 FILLER_0_0_585
*171 FILLER_0_0_589
*172 FILLER_0_0_593
*173 FILLER_0_0_600
*174 FILLER_0_0_612
*175 FILLER_0_0_617
*176 FILLER_0_0_629
*177 FILLER_0_0_641
*178 FILLER_0_0_645
*179 FILLER_0_0_657
*180 FILLER_0_0_669
*181 FILLER_0_0_673
*182 FILLER_0_0_685
*183 FILLER_0_0_69
*184 FILLER_0_0_697
*185 FILLER_0_0_701
*186 FILLER_0_0_713
*187 FILLER_0_0_725
*188 FILLER_0_0_729
*189 FILLER_0_0_741
*190 FILLER_0_0_753
*191 FILLER_0_0_757
*192 FILLER_0_0_769
*193 FILLER_0_0_81
*194 FILLER_0_0_85
*195 FILLER_0_0_9
*196 FILLER_0_0_97
*197 FILLER_0_100_109
*198 FILLER_0_100_121
*199 FILLER_0_100_133
*200 FILLER_0_100_139
*201 FILLER_0_100_141
*202 FILLER_0_100_15
*203 FILLER_0_100_153
*204 FILLER_0_100_165
*205 FILLER_0_100_177
*206 FILLER_0_100_189
*207 FILLER_0_100_195
*208 FILLER_0_100_197
*209 FILLER_0_100_209
*210 FILLER_0_100_221
*211 FILLER_0_100_233
*212 FILLER_0_100_245
*213 FILLER_0_100_251
*214 FILLER_0_100_253
*215 FILLER_0_100_265
*216 FILLER_0_100_27
*217 FILLER_0_100_277
*218 FILLER_0_100_289
*219 FILLER_0_100_29
*220 FILLER_0_100_3
*221 FILLER_0_100_301
*222 FILLER_0_100_307
*223 FILLER_0_100_309
*224 FILLER_0_100_321
*225 FILLER_0_100_333
*226 FILLER_0_100_345
*227 FILLER_0_100_357
*228 FILLER_0_100_363
*229 FILLER_0_100_365
*230 FILLER_0_100_377
*231 FILLER_0_100_389
*232 FILLER_0_100_401
*233 FILLER_0_100_41
*234 FILLER_0_100_413
*235 FILLER_0_100_419
*236 FILLER_0_100_421
*237 FILLER_0_100_433
*238 FILLER_0_100_445
*239 FILLER_0_100_457
*240 FILLER_0_100_469
*241 FILLER_0_100_475
*242 FILLER_0_100_477
*243 FILLER_0_100_489
*244 FILLER_0_100_501
*245 FILLER_0_100_513
*246 FILLER_0_100_525
*247 FILLER_0_100_53
*248 FILLER_0_100_531
*249 FILLER_0_100_533
*250 FILLER_0_100_545
*251 FILLER_0_100_557
*252 FILLER_0_100_569
*253 FILLER_0_100_581
*254 FILLER_0_100_587
*255 FILLER_0_100_589
*256 FILLER_0_100_601
*257 FILLER_0_100_613
*258 FILLER_0_100_625
*259 FILLER_0_100_637
*260 FILLER_0_100_643
*261 FILLER_0_100_645
*262 FILLER_0_100_65
*263 FILLER_0_100_657
*264 FILLER_0_100_669
*265 FILLER_0_100_681
*266 FILLER_0_100_693
*267 FILLER_0_100_699
*268 FILLER_0_100_701
*269 FILLER_0_100_713
*270 FILLER_0_100_725
*271 FILLER_0_100_737
*272 FILLER_0_100_749
*273 FILLER_0_100_755
*274 FILLER_0_100_757
*275 FILLER_0_100_769
*276 FILLER_0_100_77
*277 FILLER_0_100_777
*278 FILLER_0_100_83
*279 FILLER_0_100_85
*280 FILLER_0_100_97
*281 FILLER_0_101_105
*282 FILLER_0_101_111
*283 FILLER_0_101_113
*284 FILLER_0_101_125
*285 FILLER_0_101_137
*286 FILLER_0_101_149
*287 FILLER_0_101_15
*288 FILLER_0_101_161
*289 FILLER_0_101_167
*290 FILLER_0_101_169
*291 FILLER_0_101_181
*292 FILLER_0_101_193
*293 FILLER_0_101_205
*294 FILLER_0_101_217
*295 FILLER_0_101_223
*296 FILLER_0_101_225
*297 FILLER_0_101_237
*298 FILLER_0_101_249
*299 FILLER_0_101_261
*300 FILLER_0_101_27
*301 FILLER_0_101_273
*302 FILLER_0_101_279
*303 FILLER_0_101_281
*304 FILLER_0_101_293
*305 FILLER_0_101_3
*306 FILLER_0_101_305
*307 FILLER_0_101_317
*308 FILLER_0_101_329
*309 FILLER_0_101_335
*310 FILLER_0_101_337
*311 FILLER_0_101_349
*312 FILLER_0_101_361
*313 FILLER_0_101_373
*314 FILLER_0_101_385
*315 FILLER_0_101_39
*316 FILLER_0_101_391
*317 FILLER_0_101_393
*318 FILLER_0_101_405
*319 FILLER_0_101_417
*320 FILLER_0_101_429
*321 FILLER_0_101_441
*322 FILLER_0_101_447
*323 FILLER_0_101_449
*324 FILLER_0_101_461
*325 FILLER_0_101_473
*326 FILLER_0_101_485
*327 FILLER_0_101_497
*328 FILLER_0_101_503
*329 FILLER_0_101_505
*330 FILLER_0_101_51
*331 FILLER_0_101_517
*332 FILLER_0_101_529
*333 FILLER_0_101_541
*334 FILLER_0_101_55
*335 FILLER_0_101_553
*336 FILLER_0_101_559
*337 FILLER_0_101_561
*338 FILLER_0_101_57
*339 FILLER_0_101_573
*340 FILLER_0_101_585
*341 FILLER_0_101_597
*342 FILLER_0_101_609
*343 FILLER_0_101_615
*344 FILLER_0_101_617
*345 FILLER_0_101_629
*346 FILLER_0_101_641
*347 FILLER_0_101_653
*348 FILLER_0_101_665
*349 FILLER_0_101_671
*350 FILLER_0_101_673
*351 FILLER_0_101_685
*352 FILLER_0_101_69
*353 FILLER_0_101_697
*354 FILLER_0_101_709
*355 FILLER_0_101_721
*356 FILLER_0_101_727
*357 FILLER_0_101_729
*358 FILLER_0_101_741
*359 FILLER_0_101_753
*360 FILLER_0_101_765
*361 FILLER_0_101_81
*362 FILLER_0_101_93
*363 FILLER_0_102_109
*364 FILLER_0_102_121
*365 FILLER_0_102_133
*366 FILLER_0_102_139
*367 FILLER_0_102_141
*368 FILLER_0_102_15
*369 FILLER_0_102_153
*370 FILLER_0_102_165
*371 FILLER_0_102_177
*372 FILLER_0_102_189
*373 FILLER_0_102_195
*374 FILLER_0_102_197
*375 FILLER_0_102_209
*376 FILLER_0_102_221
*377 FILLER_0_102_233
*378 FILLER_0_102_245
*379 FILLER_0_102_251
*380 FILLER_0_102_253
*381 FILLER_0_102_265
*382 FILLER_0_102_27
*383 FILLER_0_102_277
*384 FILLER_0_102_289
*385 FILLER_0_102_29
*386 FILLER_0_102_3
*387 FILLER_0_102_301
*388 FILLER_0_102_307
*389 FILLER_0_102_309
*390 FILLER_0_102_321
*391 FILLER_0_102_333
*392 FILLER_0_102_345
*393 FILLER_0_102_357
*394 FILLER_0_102_363
*395 FILLER_0_102_365
*396 FILLER_0_102_377
*397 FILLER_0_102_389
*398 FILLER_0_102_401
*399 FILLER_0_102_41
*400 FILLER_0_102_413
*401 FILLER_0_102_419
*402 FILLER_0_102_421
*403 FILLER_0_102_433
*404 FILLER_0_102_445
*405 FILLER_0_102_457
*406 FILLER_0_102_469
*407 FILLER_0_102_475
*408 FILLER_0_102_477
*409 FILLER_0_102_489
*410 FILLER_0_102_501
*411 FILLER_0_102_513
*412 FILLER_0_102_525
*413 FILLER_0_102_53
*414 FILLER_0_102_531
*415 FILLER_0_102_533
*416 FILLER_0_102_545
*417 FILLER_0_102_557
*418 FILLER_0_102_569
*419 FILLER_0_102_581
*420 FILLER_0_102_587
*421 FILLER_0_102_589
*422 FILLER_0_102_601
*423 FILLER_0_102_613
*424 FILLER_0_102_625
*425 FILLER_0_102_637
*426 FILLER_0_102_643
*427 FILLER_0_102_645
*428 FILLER_0_102_65
*429 FILLER_0_102_657
*430 FILLER_0_102_669
*431 FILLER_0_102_681
*432 FILLER_0_102_693
*433 FILLER_0_102_699
*434 FILLER_0_102_701
*435 FILLER_0_102_713
*436 FILLER_0_102_725
*437 FILLER_0_102_737
*438 FILLER_0_102_749
*439 FILLER_0_102_755
*440 FILLER_0_102_757
*441 FILLER_0_102_769
*442 FILLER_0_102_77
*443 FILLER_0_102_777
*444 FILLER_0_102_83
*445 FILLER_0_102_85
*446 FILLER_0_102_97
*447 FILLER_0_103_105
*448 FILLER_0_103_111
*449 FILLER_0_103_113
*450 FILLER_0_103_125
*451 FILLER_0_103_137
*452 FILLER_0_103_149
*453 FILLER_0_103_15
*454 FILLER_0_103_161
*455 FILLER_0_103_167
*456 FILLER_0_103_169
*457 FILLER_0_103_181
*458 FILLER_0_103_193
*459 FILLER_0_103_205
*460 FILLER_0_103_217
*461 FILLER_0_103_223
*462 FILLER_0_103_225
*463 FILLER_0_103_237
*464 FILLER_0_103_249
*465 FILLER_0_103_261
*466 FILLER_0_103_27
*467 FILLER_0_103_273
*468 FILLER_0_103_279
*469 FILLER_0_103_281
*470 FILLER_0_103_293
*471 FILLER_0_103_3
*472 FILLER_0_103_305
*473 FILLER_0_103_317
*474 FILLER_0_103_329
*475 FILLER_0_103_335
*476 FILLER_0_103_337
*477 FILLER_0_103_349
*478 FILLER_0_103_361
*479 FILLER_0_103_373
*480 FILLER_0_103_385
*481 FILLER_0_103_39
*482 FILLER_0_103_391
*483 FILLER_0_103_393
*484 FILLER_0_103_405
*485 FILLER_0_103_417
*486 FILLER_0_103_429
*487 FILLER_0_103_441
*488 FILLER_0_103_447
*489 FILLER_0_103_449
*490 FILLER_0_103_461
*491 FILLER_0_103_473
*492 FILLER_0_103_485
*493 FILLER_0_103_497
*494 FILLER_0_103_503
*495 FILLER_0_103_505
*496 FILLER_0_103_51
*497 FILLER_0_103_517
*498 FILLER_0_103_529
*499 FILLER_0_103_541
*500 FILLER_0_103_55
*501 FILLER_0_103_553
*502 FILLER_0_103_559
*503 FILLER_0_103_561
*504 FILLER_0_103_57
*505 FILLER_0_103_573
*506 FILLER_0_103_585
*507 FILLER_0_103_597
*508 FILLER_0_103_609
*509 FILLER_0_103_615
*510 FILLER_0_103_617
*511 FILLER_0_103_629
*512 FILLER_0_103_641
*513 FILLER_0_103_653
*514 FILLER_0_103_665
*515 FILLER_0_103_671
*516 FILLER_0_103_673
*517 FILLER_0_103_685
*518 FILLER_0_103_69
*519 FILLER_0_103_697
*520 FILLER_0_103_709
*521 FILLER_0_103_721
*522 FILLER_0_103_727
*523 FILLER_0_103_729
*524 FILLER_0_103_741
*525 FILLER_0_103_753
*526 FILLER_0_103_765
*527 FILLER_0_103_777
*528 FILLER_0_103_81
*529 FILLER_0_103_93
*530 FILLER_0_104_109
*531 FILLER_0_104_121
*532 FILLER_0_104_133
*533 FILLER_0_104_139
*534 FILLER_0_104_141
*535 FILLER_0_104_15
*536 FILLER_0_104_153
*537 FILLER_0_104_165
*538 FILLER_0_104_177
*539 FILLER_0_104_189
*540 FILLER_0_104_195
*541 FILLER_0_104_197
*542 FILLER_0_104_209
*543 FILLER_0_104_221
*544 FILLER_0_104_233
*545 FILLER_0_104_245
*546 FILLER_0_104_251
*547 FILLER_0_104_253
*548 FILLER_0_104_265
*549 FILLER_0_104_27
*550 FILLER_0_104_277
*551 FILLER_0_104_289
*552 FILLER_0_104_29
*553 FILLER_0_104_3
*554 FILLER_0_104_301
*555 FILLER_0_104_307
*556 FILLER_0_104_309
*557 FILLER_0_104_321
*558 FILLER_0_104_333
*559 FILLER_0_104_345
*560 FILLER_0_104_357
*561 FILLER_0_104_363
*562 FILLER_0_104_365
*563 FILLER_0_104_377
*564 FILLER_0_104_389
*565 FILLER_0_104_401
*566 FILLER_0_104_41
*567 FILLER_0_104_413
*568 FILLER_0_104_419
*569 FILLER_0_104_421
*570 FILLER_0_104_433
*571 FILLER_0_104_445
*572 FILLER_0_104_457
*573 FILLER_0_104_469
*574 FILLER_0_104_475
*575 FILLER_0_104_477
*576 FILLER_0_104_489
*577 FILLER_0_104_501
*578 FILLER_0_104_513
*579 FILLER_0_104_525
*580 FILLER_0_104_53
*581 FILLER_0_104_531
*582 FILLER_0_104_533
*583 FILLER_0_104_545
*584 FILLER_0_104_557
*585 FILLER_0_104_569
*586 FILLER_0_104_581
*587 FILLER_0_104_587
*588 FILLER_0_104_589
*589 FILLER_0_104_601
*590 FILLER_0_104_613
*591 FILLER_0_104_625
*592 FILLER_0_104_637
*593 FILLER_0_104_643
*594 FILLER_0_104_645
*595 FILLER_0_104_65
*596 FILLER_0_104_657
*597 FILLER_0_104_669
*598 FILLER_0_104_681
*599 FILLER_0_104_693
*600 FILLER_0_104_699
*601 FILLER_0_104_701
*602 FILLER_0_104_713
*603 FILLER_0_104_725
*604 FILLER_0_104_737
*605 FILLER_0_104_749
*606 FILLER_0_104_755
*607 FILLER_0_104_757
*608 FILLER_0_104_769
*609 FILLER_0_104_77
*610 FILLER_0_104_777
*611 FILLER_0_104_83
*612 FILLER_0_104_85
*613 FILLER_0_104_97
*614 FILLER_0_105_105
*615 FILLER_0_105_111
*616 FILLER_0_105_113
*617 FILLER_0_105_125
*618 FILLER_0_105_137
*619 FILLER_0_105_149
*620 FILLER_0_105_15
*621 FILLER_0_105_161
*622 FILLER_0_105_167
*623 FILLER_0_105_169
*624 FILLER_0_105_181
*625 FILLER_0_105_193
*626 FILLER_0_105_205
*627 FILLER_0_105_217
*628 FILLER_0_105_223
*629 FILLER_0_105_225
*630 FILLER_0_105_237
*631 FILLER_0_105_249
*632 FILLER_0_105_261
*633 FILLER_0_105_27
*634 FILLER_0_105_273
*635 FILLER_0_105_279
*636 FILLER_0_105_281
*637 FILLER_0_105_293
*638 FILLER_0_105_3
*639 FILLER_0_105_305
*640 FILLER_0_105_317
*641 FILLER_0_105_329
*642 FILLER_0_105_335
*643 FILLER_0_105_337
*644 FILLER_0_105_349
*645 FILLER_0_105_361
*646 FILLER_0_105_373
*647 FILLER_0_105_385
*648 FILLER_0_105_39
*649 FILLER_0_105_391
*650 FILLER_0_105_393
*651 FILLER_0_105_405
*652 FILLER_0_105_417
*653 FILLER_0_105_429
*654 FILLER_0_105_441
*655 FILLER_0_105_447
*656 FILLER_0_105_449
*657 FILLER_0_105_461
*658 FILLER_0_105_473
*659 FILLER_0_105_485
*660 FILLER_0_105_497
*661 FILLER_0_105_503
*662 FILLER_0_105_505
*663 FILLER_0_105_51
*664 FILLER_0_105_517
*665 FILLER_0_105_529
*666 FILLER_0_105_541
*667 FILLER_0_105_55
*668 FILLER_0_105_553
*669 FILLER_0_105_559
*670 FILLER_0_105_561
*671 FILLER_0_105_57
*672 FILLER_0_105_573
*673 FILLER_0_105_585
*674 FILLER_0_105_597
*675 FILLER_0_105_609
*676 FILLER_0_105_615
*677 FILLER_0_105_617
*678 FILLER_0_105_629
*679 FILLER_0_105_641
*680 FILLER_0_105_653
*681 FILLER_0_105_665
*682 FILLER_0_105_671
*683 FILLER_0_105_673
*684 FILLER_0_105_685
*685 FILLER_0_105_69
*686 FILLER_0_105_697
*687 FILLER_0_105_709
*688 FILLER_0_105_721
*689 FILLER_0_105_727
*690 FILLER_0_105_729
*691 FILLER_0_105_741
*692 FILLER_0_105_753
*693 FILLER_0_105_765
*694 FILLER_0_105_777
*695 FILLER_0_105_81
*696 FILLER_0_105_93
*697 FILLER_0_106_109
*698 FILLER_0_106_121
*699 FILLER_0_106_133
*700 FILLER_0_106_139
*701 FILLER_0_106_141
*702 FILLER_0_106_153
*703 FILLER_0_106_165
*704 FILLER_0_106_177
*705 FILLER_0_106_189
*706 FILLER_0_106_195
*707 FILLER_0_106_197
*708 FILLER_0_106_209
*709 FILLER_0_106_21
*710 FILLER_0_106_221
*711 FILLER_0_106_233
*712 FILLER_0_106_245
*713 FILLER_0_106_251
*714 FILLER_0_106_253
*715 FILLER_0_106_265
*716 FILLER_0_106_27
*717 FILLER_0_106_277
*718 FILLER_0_106_289
*719 FILLER_0_106_29
*720 FILLER_0_106_301
*721 FILLER_0_106_307
*722 FILLER_0_106_309
*723 FILLER_0_106_321
*724 FILLER_0_106_333
*725 FILLER_0_106_345
*726 FILLER_0_106_357
*727 FILLER_0_106_363
*728 FILLER_0_106_365
*729 FILLER_0_106_377
*730 FILLER_0_106_389
*731 FILLER_0_106_401
*732 FILLER_0_106_41
*733 FILLER_0_106_413
*734 FILLER_0_106_419
*735 FILLER_0_106_421
*736 FILLER_0_106_433
*737 FILLER_0_106_445
*738 FILLER_0_106_457
*739 FILLER_0_106_469
*740 FILLER_0_106_475
*741 FILLER_0_106_477
*742 FILLER_0_106_489
*743 FILLER_0_106_501
*744 FILLER_0_106_513
*745 FILLER_0_106_525
*746 FILLER_0_106_53
*747 FILLER_0_106_531
*748 FILLER_0_106_533
*749 FILLER_0_106_545
*750 FILLER_0_106_557
*751 FILLER_0_106_569
*752 FILLER_0_106_581
*753 FILLER_0_106_587
*754 FILLER_0_106_589
*755 FILLER_0_106_601
*756 FILLER_0_106_613
*757 FILLER_0_106_625
*758 FILLER_0_106_637
*759 FILLER_0_106_643
*760 FILLER_0_106_645
*761 FILLER_0_106_65
*762 FILLER_0_106_657
*763 FILLER_0_106_669
*764 FILLER_0_106_681
*765 FILLER_0_106_693
*766 FILLER_0_106_699
*767 FILLER_0_106_701
*768 FILLER_0_106_713
*769 FILLER_0_106_725
*770 FILLER_0_106_737
*771 FILLER_0_106_749
*772 FILLER_0_106_755
*773 FILLER_0_106_757
*774 FILLER_0_106_769
*775 FILLER_0_106_77
*776 FILLER_0_106_777
*777 FILLER_0_106_83
*778 FILLER_0_106_85
*779 FILLER_0_106_9
*780 FILLER_0_106_97
*781 FILLER_0_107_105
*782 FILLER_0_107_111
*783 FILLER_0_107_113
*784 FILLER_0_107_125
*785 FILLER_0_107_137
*786 FILLER_0_107_149
*787 FILLER_0_107_15
*788 FILLER_0_107_161
*789 FILLER_0_107_167
*790 FILLER_0_107_169
*791 FILLER_0_107_181
*792 FILLER_0_107_193
*793 FILLER_0_107_205
*794 FILLER_0_107_217
*795 FILLER_0_107_223
*796 FILLER_0_107_225
*797 FILLER_0_107_237
*798 FILLER_0_107_249
*799 FILLER_0_107_261
*800 FILLER_0_107_27
*801 FILLER_0_107_273
*802 FILLER_0_107_279
*803 FILLER_0_107_281
*804 FILLER_0_107_293
*805 FILLER_0_107_3
*806 FILLER_0_107_305
*807 FILLER_0_107_317
*808 FILLER_0_107_329
*809 FILLER_0_107_335
*810 FILLER_0_107_337
*811 FILLER_0_107_349
*812 FILLER_0_107_361
*813 FILLER_0_107_373
*814 FILLER_0_107_385
*815 FILLER_0_107_39
*816 FILLER_0_107_391
*817 FILLER_0_107_393
*818 FILLER_0_107_405
*819 FILLER_0_107_417
*820 FILLER_0_107_429
*821 FILLER_0_107_441
*822 FILLER_0_107_447
*823 FILLER_0_107_449
*824 FILLER_0_107_461
*825 FILLER_0_107_473
*826 FILLER_0_107_485
*827 FILLER_0_107_497
*828 FILLER_0_107_503
*829 FILLER_0_107_505
*830 FILLER_0_107_51
*831 FILLER_0_107_517
*832 FILLER_0_107_529
*833 FILLER_0_107_541
*834 FILLER_0_107_55
*835 FILLER_0_107_553
*836 FILLER_0_107_559
*837 FILLER_0_107_561
*838 FILLER_0_107_57
*839 FILLER_0_107_573
*840 FILLER_0_107_585
*841 FILLER_0_107_597
*842 FILLER_0_107_609
*843 FILLER_0_107_615
*844 FILLER_0_107_617
*845 FILLER_0_107_629
*846 FILLER_0_107_641
*847 FILLER_0_107_653
*848 FILLER_0_107_665
*849 FILLER_0_107_671
*850 FILLER_0_107_673
*851 FILLER_0_107_685
*852 FILLER_0_107_69
*853 FILLER_0_107_697
*854 FILLER_0_107_709
*855 FILLER_0_107_721
*856 FILLER_0_107_727
*857 FILLER_0_107_729
*858 FILLER_0_107_741
*859 FILLER_0_107_753
*860 FILLER_0_107_765
*861 FILLER_0_107_777
*862 FILLER_0_107_81
*863 FILLER_0_107_93
*864 FILLER_0_108_109
*865 FILLER_0_108_121
*866 FILLER_0_108_133
*867 FILLER_0_108_139
*868 FILLER_0_108_141
*869 FILLER_0_108_15
*870 FILLER_0_108_153
*871 FILLER_0_108_165
*872 FILLER_0_108_177
*873 FILLER_0_108_189
*874 FILLER_0_108_195
*875 FILLER_0_108_197
*876 FILLER_0_108_209
*877 FILLER_0_108_221
*878 FILLER_0_108_233
*879 FILLER_0_108_245
*880 FILLER_0_108_251
*881 FILLER_0_108_253
*882 FILLER_0_108_265
*883 FILLER_0_108_27
*884 FILLER_0_108_277
*885 FILLER_0_108_289
*886 FILLER_0_108_29
*887 FILLER_0_108_3
*888 FILLER_0_108_301
*889 FILLER_0_108_307
*890 FILLER_0_108_309
*891 FILLER_0_108_321
*892 FILLER_0_108_333
*893 FILLER_0_108_345
*894 FILLER_0_108_357
*895 FILLER_0_108_363
*896 FILLER_0_108_365
*897 FILLER_0_108_377
*898 FILLER_0_108_389
*899 FILLER_0_108_401
*900 FILLER_0_108_41
*901 FILLER_0_108_413
*902 FILLER_0_108_419
*903 FILLER_0_108_421
*904 FILLER_0_108_433
*905 FILLER_0_108_445
*906 FILLER_0_108_457
*907 FILLER_0_108_469
*908 FILLER_0_108_475
*909 FILLER_0_108_477
*910 FILLER_0_108_489
*911 FILLER_0_108_501
*912 FILLER_0_108_513
*913 FILLER_0_108_525
*914 FILLER_0_108_53
*915 FILLER_0_108_531
*916 FILLER_0_108_533
*917 FILLER_0_108_545
*918 FILLER_0_108_557
*919 FILLER_0_108_569
*920 FILLER_0_108_581
*921 FILLER_0_108_587
*922 FILLER_0_108_589
*923 FILLER_0_108_601
*924 FILLER_0_108_613
*925 FILLER_0_108_625
*926 FILLER_0_108_637
*927 FILLER_0_108_643
*928 FILLER_0_108_645
*929 FILLER_0_108_65
*930 FILLER_0_108_657
*931 FILLER_0_108_669
*932 FILLER_0_108_681
*933 FILLER_0_108_693
*934 FILLER_0_108_699
*935 FILLER_0_108_701
*936 FILLER_0_108_713
*937 FILLER_0_108_725
*938 FILLER_0_108_737
*939 FILLER_0_108_749
*940 FILLER_0_108_755
*941 FILLER_0_108_757
*942 FILLER_0_108_769
*943 FILLER_0_108_77
*944 FILLER_0_108_777
*945 FILLER_0_108_83
*946 FILLER_0_108_85
*947 FILLER_0_108_97
*948 FILLER_0_109_105
*949 FILLER_0_109_111
*950 FILLER_0_109_113
*951 FILLER_0_109_125
*952 FILLER_0_109_137
*953 FILLER_0_109_149
*954 FILLER_0_109_15
*955 FILLER_0_109_161
*956 FILLER_0_109_167
*957 FILLER_0_109_169
*958 FILLER_0_109_181
*959 FILLER_0_109_193
*960 FILLER_0_109_205
*961 FILLER_0_109_217
*962 FILLER_0_109_223
*963 FILLER_0_109_225
*964 FILLER_0_109_237
*965 FILLER_0_109_249
*966 FILLER_0_109_261
*967 FILLER_0_109_27
*968 FILLER_0_109_273
*969 FILLER_0_109_279
*970 FILLER_0_109_281
*971 FILLER_0_109_293
*972 FILLER_0_109_3
*973 FILLER_0_109_305
*974 FILLER_0_109_317
*975 FILLER_0_109_329
*976 FILLER_0_109_335
*977 FILLER_0_109_337
*978 FILLER_0_109_349
*979 FILLER_0_109_361
*980 FILLER_0_109_373
*981 FILLER_0_109_385
*982 FILLER_0_109_39
*983 FILLER_0_109_391
*984 FILLER_0_109_393
*985 FILLER_0_109_405
*986 FILLER_0_109_417
*987 FILLER_0_109_429
*988 FILLER_0_109_441
*989 FILLER_0_109_447
*990 FILLER_0_109_449
*991 FILLER_0_109_461
*992 FILLER_0_109_473
*993 FILLER_0_109_485
*994 FILLER_0_109_497
*995 FILLER_0_109_503
*996 FILLER_0_109_505
*997 FILLER_0_109_51
*998 FILLER_0_109_517
*999 FILLER_0_109_529
*1000 FILLER_0_109_541
*1001 FILLER_0_109_55
*1002 FILLER_0_109_553
*1003 FILLER_0_109_559
*1004 FILLER_0_109_561
*1005 FILLER_0_109_57
*1006 FILLER_0_109_573
*1007 FILLER_0_109_585
*1008 FILLER_0_109_597
*1009 FILLER_0_109_609
*1010 FILLER_0_109_615
*1011 FILLER_0_109_617
*1012 FILLER_0_109_629
*1013 FILLER_0_109_641
*1014 FILLER_0_109_653
*1015 FILLER_0_109_665
*1016 FILLER_0_109_671
*1017 FILLER_0_109_673
*1018 FILLER_0_109_685
*1019 FILLER_0_109_69
*1020 FILLER_0_109_697
*1021 FILLER_0_109_709
*1022 FILLER_0_109_721
*1023 FILLER_0_109_727
*1024 FILLER_0_109_729
*1025 FILLER_0_109_741
*1026 FILLER_0_109_753
*1027 FILLER_0_109_765
*1028 FILLER_0_109_777
*1029 FILLER_0_109_81
*1030 FILLER_0_109_93
*1031 FILLER_0_10_109
*1032 FILLER_0_10_121
*1033 FILLER_0_10_133
*1034 FILLER_0_10_139
*1035 FILLER_0_10_141
*1036 FILLER_0_10_15
*1037 FILLER_0_10_153
*1038 FILLER_0_10_165
*1039 FILLER_0_10_177
*1040 FILLER_0_10_189
*1041 FILLER_0_10_195
*1042 FILLER_0_10_197
*1043 FILLER_0_10_209
*1044 FILLER_0_10_221
*1045 FILLER_0_10_233
*1046 FILLER_0_10_245
*1047 FILLER_0_10_251
*1048 FILLER_0_10_253
*1049 FILLER_0_10_265
*1050 FILLER_0_10_27
*1051 FILLER_0_10_277
*1052 FILLER_0_10_289
*1053 FILLER_0_10_29
*1054 FILLER_0_10_3
*1055 FILLER_0_10_301
*1056 FILLER_0_10_307
*1057 FILLER_0_10_309
*1058 FILLER_0_10_321
*1059 FILLER_0_10_333
*1060 FILLER_0_10_345
*1061 FILLER_0_10_357
*1062 FILLER_0_10_363
*1063 FILLER_0_10_365
*1064 FILLER_0_10_377
*1065 FILLER_0_10_389
*1066 FILLER_0_10_401
*1067 FILLER_0_10_41
*1068 FILLER_0_10_413
*1069 FILLER_0_10_419
*1070 FILLER_0_10_421
*1071 FILLER_0_10_433
*1072 FILLER_0_10_445
*1073 FILLER_0_10_457
*1074 FILLER_0_10_469
*1075 FILLER_0_10_475
*1076 FILLER_0_10_477
*1077 FILLER_0_10_489
*1078 FILLER_0_10_501
*1079 FILLER_0_10_513
*1080 FILLER_0_10_525
*1081 FILLER_0_10_53
*1082 FILLER_0_10_531
*1083 FILLER_0_10_533
*1084 FILLER_0_10_545
*1085 FILLER_0_10_557
*1086 FILLER_0_10_569
*1087 FILLER_0_10_581
*1088 FILLER_0_10_587
*1089 FILLER_0_10_589
*1090 FILLER_0_10_601
*1091 FILLER_0_10_613
*1092 FILLER_0_10_625
*1093 FILLER_0_10_637
*1094 FILLER_0_10_643
*1095 FILLER_0_10_645
*1096 FILLER_0_10_65
*1097 FILLER_0_10_657
*1098 FILLER_0_10_669
*1099 FILLER_0_10_681
*1100 FILLER_0_10_693
*1101 FILLER_0_10_699
*1102 FILLER_0_10_701
*1103 FILLER_0_10_713
*1104 FILLER_0_10_725
*1105 FILLER_0_10_737
*1106 FILLER_0_10_749
*1107 FILLER_0_10_755
*1108 FILLER_0_10_757
*1109 FILLER_0_10_769
*1110 FILLER_0_10_77
*1111 FILLER_0_10_777
*1112 FILLER_0_10_83
*1113 FILLER_0_10_85
*1114 FILLER_0_10_97
*1115 FILLER_0_110_109
*1116 FILLER_0_110_121
*1117 FILLER_0_110_133
*1118 FILLER_0_110_139
*1119 FILLER_0_110_141
*1120 FILLER_0_110_15
*1121 FILLER_0_110_153
*1122 FILLER_0_110_165
*1123 FILLER_0_110_177
*1124 FILLER_0_110_189
*1125 FILLER_0_110_195
*1126 FILLER_0_110_197
*1127 FILLER_0_110_209
*1128 FILLER_0_110_221
*1129 FILLER_0_110_233
*1130 FILLER_0_110_245
*1131 FILLER_0_110_251
*1132 FILLER_0_110_253
*1133 FILLER_0_110_265
*1134 FILLER_0_110_27
*1135 FILLER_0_110_277
*1136 FILLER_0_110_289
*1137 FILLER_0_110_29
*1138 FILLER_0_110_3
*1139 FILLER_0_110_301
*1140 FILLER_0_110_307
*1141 FILLER_0_110_309
*1142 FILLER_0_110_321
*1143 FILLER_0_110_333
*1144 FILLER_0_110_345
*1145 FILLER_0_110_357
*1146 FILLER_0_110_363
*1147 FILLER_0_110_365
*1148 FILLER_0_110_377
*1149 FILLER_0_110_389
*1150 FILLER_0_110_401
*1151 FILLER_0_110_41
*1152 FILLER_0_110_413
*1153 FILLER_0_110_419
*1154 FILLER_0_110_421
*1155 FILLER_0_110_433
*1156 FILLER_0_110_445
*1157 FILLER_0_110_457
*1158 FILLER_0_110_469
*1159 FILLER_0_110_475
*1160 FILLER_0_110_477
*1161 FILLER_0_110_489
*1162 FILLER_0_110_501
*1163 FILLER_0_110_513
*1164 FILLER_0_110_525
*1165 FILLER_0_110_53
*1166 FILLER_0_110_531
*1167 FILLER_0_110_533
*1168 FILLER_0_110_545
*1169 FILLER_0_110_557
*1170 FILLER_0_110_569
*1171 FILLER_0_110_581
*1172 FILLER_0_110_587
*1173 FILLER_0_110_589
*1174 FILLER_0_110_601
*1175 FILLER_0_110_613
*1176 FILLER_0_110_625
*1177 FILLER_0_110_637
*1178 FILLER_0_110_643
*1179 FILLER_0_110_645
*1180 FILLER_0_110_65
*1181 FILLER_0_110_657
*1182 FILLER_0_110_669
*1183 FILLER_0_110_681
*1184 FILLER_0_110_693
*1185 FILLER_0_110_699
*1186 FILLER_0_110_701
*1187 FILLER_0_110_713
*1188 FILLER_0_110_725
*1189 FILLER_0_110_737
*1190 FILLER_0_110_749
*1191 FILLER_0_110_755
*1192 FILLER_0_110_757
*1193 FILLER_0_110_769
*1194 FILLER_0_110_77
*1195 FILLER_0_110_777
*1196 FILLER_0_110_83
*1197 FILLER_0_110_85
*1198 FILLER_0_110_97
*1199 FILLER_0_111_105
*1200 FILLER_0_111_111
*1201 FILLER_0_111_113
*1202 FILLER_0_111_125
*1203 FILLER_0_111_137
*1204 FILLER_0_111_149
*1205 FILLER_0_111_15
*1206 FILLER_0_111_161
*1207 FILLER_0_111_167
*1208 FILLER_0_111_169
*1209 FILLER_0_111_181
*1210 FILLER_0_111_193
*1211 FILLER_0_111_205
*1212 FILLER_0_111_217
*1213 FILLER_0_111_223
*1214 FILLER_0_111_225
*1215 FILLER_0_111_237
*1216 FILLER_0_111_249
*1217 FILLER_0_111_261
*1218 FILLER_0_111_27
*1219 FILLER_0_111_273
*1220 FILLER_0_111_279
*1221 FILLER_0_111_281
*1222 FILLER_0_111_293
*1223 FILLER_0_111_3
*1224 FILLER_0_111_305
*1225 FILLER_0_111_317
*1226 FILLER_0_111_329
*1227 FILLER_0_111_335
*1228 FILLER_0_111_337
*1229 FILLER_0_111_349
*1230 FILLER_0_111_361
*1231 FILLER_0_111_373
*1232 FILLER_0_111_385
*1233 FILLER_0_111_39
*1234 FILLER_0_111_391
*1235 FILLER_0_111_393
*1236 FILLER_0_111_405
*1237 FILLER_0_111_417
*1238 FILLER_0_111_429
*1239 FILLER_0_111_441
*1240 FILLER_0_111_447
*1241 FILLER_0_111_449
*1242 FILLER_0_111_461
*1243 FILLER_0_111_473
*1244 FILLER_0_111_485
*1245 FILLER_0_111_497
*1246 FILLER_0_111_503
*1247 FILLER_0_111_505
*1248 FILLER_0_111_51
*1249 FILLER_0_111_517
*1250 FILLER_0_111_529
*1251 FILLER_0_111_541
*1252 FILLER_0_111_55
*1253 FILLER_0_111_553
*1254 FILLER_0_111_559
*1255 FILLER_0_111_561
*1256 FILLER_0_111_57
*1257 FILLER_0_111_573
*1258 FILLER_0_111_585
*1259 FILLER_0_111_597
*1260 FILLER_0_111_609
*1261 FILLER_0_111_615
*1262 FILLER_0_111_617
*1263 FILLER_0_111_629
*1264 FILLER_0_111_641
*1265 FILLER_0_111_653
*1266 FILLER_0_111_665
*1267 FILLER_0_111_671
*1268 FILLER_0_111_673
*1269 FILLER_0_111_685
*1270 FILLER_0_111_69
*1271 FILLER_0_111_697
*1272 FILLER_0_111_709
*1273 FILLER_0_111_721
*1274 FILLER_0_111_727
*1275 FILLER_0_111_729
*1276 FILLER_0_111_741
*1277 FILLER_0_111_753
*1278 FILLER_0_111_765
*1279 FILLER_0_111_777
*1280 FILLER_0_111_81
*1281 FILLER_0_111_93
*1282 FILLER_0_112_109
*1283 FILLER_0_112_121
*1284 FILLER_0_112_133
*1285 FILLER_0_112_139
*1286 FILLER_0_112_141
*1287 FILLER_0_112_15
*1288 FILLER_0_112_153
*1289 FILLER_0_112_165
*1290 FILLER_0_112_177
*1291 FILLER_0_112_189
*1292 FILLER_0_112_195
*1293 FILLER_0_112_197
*1294 FILLER_0_112_209
*1295 FILLER_0_112_221
*1296 FILLER_0_112_233
*1297 FILLER_0_112_245
*1298 FILLER_0_112_251
*1299 FILLER_0_112_253
*1300 FILLER_0_112_265
*1301 FILLER_0_112_27
*1302 FILLER_0_112_277
*1303 FILLER_0_112_289
*1304 FILLER_0_112_29
*1305 FILLER_0_112_3
*1306 FILLER_0_112_301
*1307 FILLER_0_112_307
*1308 FILLER_0_112_309
*1309 FILLER_0_112_321
*1310 FILLER_0_112_333
*1311 FILLER_0_112_345
*1312 FILLER_0_112_357
*1313 FILLER_0_112_363
*1314 FILLER_0_112_365
*1315 FILLER_0_112_377
*1316 FILLER_0_112_389
*1317 FILLER_0_112_401
*1318 FILLER_0_112_41
*1319 FILLER_0_112_413
*1320 FILLER_0_112_419
*1321 FILLER_0_112_421
*1322 FILLER_0_112_433
*1323 FILLER_0_112_445
*1324 FILLER_0_112_457
*1325 FILLER_0_112_469
*1326 FILLER_0_112_475
*1327 FILLER_0_112_477
*1328 FILLER_0_112_489
*1329 FILLER_0_112_501
*1330 FILLER_0_112_513
*1331 FILLER_0_112_525
*1332 FILLER_0_112_53
*1333 FILLER_0_112_531
*1334 FILLER_0_112_533
*1335 FILLER_0_112_545
*1336 FILLER_0_112_557
*1337 FILLER_0_112_569
*1338 FILLER_0_112_581
*1339 FILLER_0_112_587
*1340 FILLER_0_112_589
*1341 FILLER_0_112_601
*1342 FILLER_0_112_613
*1343 FILLER_0_112_625
*1344 FILLER_0_112_637
*1345 FILLER_0_112_643
*1346 FILLER_0_112_645
*1347 FILLER_0_112_65
*1348 FILLER_0_112_657
*1349 FILLER_0_112_669
*1350 FILLER_0_112_681
*1351 FILLER_0_112_693
*1352 FILLER_0_112_699
*1353 FILLER_0_112_701
*1354 FILLER_0_112_713
*1355 FILLER_0_112_725
*1356 FILLER_0_112_737
*1357 FILLER_0_112_749
*1358 FILLER_0_112_755
*1359 FILLER_0_112_757
*1360 FILLER_0_112_769
*1361 FILLER_0_112_77
*1362 FILLER_0_112_777
*1363 FILLER_0_112_83
*1364 FILLER_0_112_85
*1365 FILLER_0_112_97
*1366 FILLER_0_113_105
*1367 FILLER_0_113_111
*1368 FILLER_0_113_113
*1369 FILLER_0_113_125
*1370 FILLER_0_113_137
*1371 FILLER_0_113_149
*1372 FILLER_0_113_15
*1373 FILLER_0_113_161
*1374 FILLER_0_113_167
*1375 FILLER_0_113_169
*1376 FILLER_0_113_181
*1377 FILLER_0_113_193
*1378 FILLER_0_113_205
*1379 FILLER_0_113_217
*1380 FILLER_0_113_223
*1381 FILLER_0_113_225
*1382 FILLER_0_113_237
*1383 FILLER_0_113_249
*1384 FILLER_0_113_261
*1385 FILLER_0_113_27
*1386 FILLER_0_113_273
*1387 FILLER_0_113_279
*1388 FILLER_0_113_281
*1389 FILLER_0_113_293
*1390 FILLER_0_113_3
*1391 FILLER_0_113_305
*1392 FILLER_0_113_317
*1393 FILLER_0_113_329
*1394 FILLER_0_113_335
*1395 FILLER_0_113_337
*1396 FILLER_0_113_349
*1397 FILLER_0_113_361
*1398 FILLER_0_113_373
*1399 FILLER_0_113_385
*1400 FILLER_0_113_39
*1401 FILLER_0_113_391
*1402 FILLER_0_113_393
*1403 FILLER_0_113_405
*1404 FILLER_0_113_417
*1405 FILLER_0_113_429
*1406 FILLER_0_113_441
*1407 FILLER_0_113_447
*1408 FILLER_0_113_449
*1409 FILLER_0_113_461
*1410 FILLER_0_113_473
*1411 FILLER_0_113_485
*1412 FILLER_0_113_497
*1413 FILLER_0_113_503
*1414 FILLER_0_113_505
*1415 FILLER_0_113_51
*1416 FILLER_0_113_517
*1417 FILLER_0_113_529
*1418 FILLER_0_113_541
*1419 FILLER_0_113_55
*1420 FILLER_0_113_553
*1421 FILLER_0_113_559
*1422 FILLER_0_113_561
*1423 FILLER_0_113_57
*1424 FILLER_0_113_573
*1425 FILLER_0_113_585
*1426 FILLER_0_113_597
*1427 FILLER_0_113_609
*1428 FILLER_0_113_615
*1429 FILLER_0_113_617
*1430 FILLER_0_113_629
*1431 FILLER_0_113_641
*1432 FILLER_0_113_653
*1433 FILLER_0_113_665
*1434 FILLER_0_113_671
*1435 FILLER_0_113_673
*1436 FILLER_0_113_685
*1437 FILLER_0_113_69
*1438 FILLER_0_113_697
*1439 FILLER_0_113_709
*1440 FILLER_0_113_721
*1441 FILLER_0_113_727
*1442 FILLER_0_113_729
*1443 FILLER_0_113_741
*1444 FILLER_0_113_753
*1445 FILLER_0_113_765
*1446 FILLER_0_113_777
*1447 FILLER_0_113_81
*1448 FILLER_0_113_93
*1449 FILLER_0_114_109
*1450 FILLER_0_114_121
*1451 FILLER_0_114_133
*1452 FILLER_0_114_139
*1453 FILLER_0_114_141
*1454 FILLER_0_114_15
*1455 FILLER_0_114_153
*1456 FILLER_0_114_165
*1457 FILLER_0_114_177
*1458 FILLER_0_114_189
*1459 FILLER_0_114_195
*1460 FILLER_0_114_197
*1461 FILLER_0_114_209
*1462 FILLER_0_114_221
*1463 FILLER_0_114_233
*1464 FILLER_0_114_245
*1465 FILLER_0_114_251
*1466 FILLER_0_114_253
*1467 FILLER_0_114_265
*1468 FILLER_0_114_27
*1469 FILLER_0_114_277
*1470 FILLER_0_114_289
*1471 FILLER_0_114_29
*1472 FILLER_0_114_3
*1473 FILLER_0_114_301
*1474 FILLER_0_114_307
*1475 FILLER_0_114_309
*1476 FILLER_0_114_321
*1477 FILLER_0_114_333
*1478 FILLER_0_114_345
*1479 FILLER_0_114_357
*1480 FILLER_0_114_363
*1481 FILLER_0_114_365
*1482 FILLER_0_114_377
*1483 FILLER_0_114_389
*1484 FILLER_0_114_401
*1485 FILLER_0_114_41
*1486 FILLER_0_114_413
*1487 FILLER_0_114_419
*1488 FILLER_0_114_421
*1489 FILLER_0_114_433
*1490 FILLER_0_114_445
*1491 FILLER_0_114_457
*1492 FILLER_0_114_469
*1493 FILLER_0_114_475
*1494 FILLER_0_114_477
*1495 FILLER_0_114_489
*1496 FILLER_0_114_501
*1497 FILLER_0_114_513
*1498 FILLER_0_114_525
*1499 FILLER_0_114_53
*1500 FILLER_0_114_531
*1501 FILLER_0_114_533
*1502 FILLER_0_114_545
*1503 FILLER_0_114_557
*1504 FILLER_0_114_569
*1505 FILLER_0_114_581
*1506 FILLER_0_114_587
*1507 FILLER_0_114_589
*1508 FILLER_0_114_601
*1509 FILLER_0_114_613
*1510 FILLER_0_114_625
*1511 FILLER_0_114_637
*1512 FILLER_0_114_643
*1513 FILLER_0_114_645
*1514 FILLER_0_114_65
*1515 FILLER_0_114_657
*1516 FILLER_0_114_669
*1517 FILLER_0_114_681
*1518 FILLER_0_114_693
*1519 FILLER_0_114_699
*1520 FILLER_0_114_701
*1521 FILLER_0_114_713
*1522 FILLER_0_114_725
*1523 FILLER_0_114_737
*1524 FILLER_0_114_749
*1525 FILLER_0_114_755
*1526 FILLER_0_114_757
*1527 FILLER_0_114_769
*1528 FILLER_0_114_77
*1529 FILLER_0_114_777
*1530 FILLER_0_114_83
*1531 FILLER_0_114_85
*1532 FILLER_0_114_97
*1533 FILLER_0_115_105
*1534 FILLER_0_115_111
*1535 FILLER_0_115_113
*1536 FILLER_0_115_125
*1537 FILLER_0_115_137
*1538 FILLER_0_115_149
*1539 FILLER_0_115_15
*1540 FILLER_0_115_161
*1541 FILLER_0_115_167
*1542 FILLER_0_115_169
*1543 FILLER_0_115_181
*1544 FILLER_0_115_193
*1545 FILLER_0_115_205
*1546 FILLER_0_115_217
*1547 FILLER_0_115_223
*1548 FILLER_0_115_225
*1549 FILLER_0_115_237
*1550 FILLER_0_115_249
*1551 FILLER_0_115_261
*1552 FILLER_0_115_27
*1553 FILLER_0_115_273
*1554 FILLER_0_115_279
*1555 FILLER_0_115_281
*1556 FILLER_0_115_293
*1557 FILLER_0_115_3
*1558 FILLER_0_115_305
*1559 FILLER_0_115_317
*1560 FILLER_0_115_329
*1561 FILLER_0_115_335
*1562 FILLER_0_115_337
*1563 FILLER_0_115_349
*1564 FILLER_0_115_361
*1565 FILLER_0_115_373
*1566 FILLER_0_115_385
*1567 FILLER_0_115_39
*1568 FILLER_0_115_391
*1569 FILLER_0_115_393
*1570 FILLER_0_115_405
*1571 FILLER_0_115_417
*1572 FILLER_0_115_429
*1573 FILLER_0_115_441
*1574 FILLER_0_115_447
*1575 FILLER_0_115_449
*1576 FILLER_0_115_461
*1577 FILLER_0_115_473
*1578 FILLER_0_115_485
*1579 FILLER_0_115_497
*1580 FILLER_0_115_503
*1581 FILLER_0_115_505
*1582 FILLER_0_115_51
*1583 FILLER_0_115_517
*1584 FILLER_0_115_529
*1585 FILLER_0_115_541
*1586 FILLER_0_115_55
*1587 FILLER_0_115_553
*1588 FILLER_0_115_559
*1589 FILLER_0_115_561
*1590 FILLER_0_115_57
*1591 FILLER_0_115_573
*1592 FILLER_0_115_585
*1593 FILLER_0_115_597
*1594 FILLER_0_115_609
*1595 FILLER_0_115_615
*1596 FILLER_0_115_617
*1597 FILLER_0_115_629
*1598 FILLER_0_115_641
*1599 FILLER_0_115_653
*1600 FILLER_0_115_665
*1601 FILLER_0_115_671
*1602 FILLER_0_115_673
*1603 FILLER_0_115_685
*1604 FILLER_0_115_69
*1605 FILLER_0_115_697
*1606 FILLER_0_115_709
*1607 FILLER_0_115_721
*1608 FILLER_0_115_727
*1609 FILLER_0_115_729
*1610 FILLER_0_115_741
*1611 FILLER_0_115_753
*1612 FILLER_0_115_765
*1613 FILLER_0_115_777
*1614 FILLER_0_115_81
*1615 FILLER_0_115_93
*1616 FILLER_0_116_109
*1617 FILLER_0_116_121
*1618 FILLER_0_116_133
*1619 FILLER_0_116_139
*1620 FILLER_0_116_141
*1621 FILLER_0_116_15
*1622 FILLER_0_116_153
*1623 FILLER_0_116_165
*1624 FILLER_0_116_177
*1625 FILLER_0_116_189
*1626 FILLER_0_116_195
*1627 FILLER_0_116_197
*1628 FILLER_0_116_209
*1629 FILLER_0_116_221
*1630 FILLER_0_116_233
*1631 FILLER_0_116_245
*1632 FILLER_0_116_251
*1633 FILLER_0_116_253
*1634 FILLER_0_116_265
*1635 FILLER_0_116_27
*1636 FILLER_0_116_277
*1637 FILLER_0_116_289
*1638 FILLER_0_116_29
*1639 FILLER_0_116_3
*1640 FILLER_0_116_301
*1641 FILLER_0_116_307
*1642 FILLER_0_116_309
*1643 FILLER_0_116_321
*1644 FILLER_0_116_333
*1645 FILLER_0_116_345
*1646 FILLER_0_116_357
*1647 FILLER_0_116_363
*1648 FILLER_0_116_365
*1649 FILLER_0_116_377
*1650 FILLER_0_116_389
*1651 FILLER_0_116_401
*1652 FILLER_0_116_41
*1653 FILLER_0_116_413
*1654 FILLER_0_116_419
*1655 FILLER_0_116_421
*1656 FILLER_0_116_433
*1657 FILLER_0_116_445
*1658 FILLER_0_116_457
*1659 FILLER_0_116_469
*1660 FILLER_0_116_475
*1661 FILLER_0_116_477
*1662 FILLER_0_116_489
*1663 FILLER_0_116_501
*1664 FILLER_0_116_513
*1665 FILLER_0_116_525
*1666 FILLER_0_116_53
*1667 FILLER_0_116_531
*1668 FILLER_0_116_533
*1669 FILLER_0_116_545
*1670 FILLER_0_116_557
*1671 FILLER_0_116_569
*1672 FILLER_0_116_581
*1673 FILLER_0_116_587
*1674 FILLER_0_116_589
*1675 FILLER_0_116_601
*1676 FILLER_0_116_613
*1677 FILLER_0_116_625
*1678 FILLER_0_116_637
*1679 FILLER_0_116_643
*1680 FILLER_0_116_645
*1681 FILLER_0_116_65
*1682 FILLER_0_116_657
*1683 FILLER_0_116_669
*1684 FILLER_0_116_681
*1685 FILLER_0_116_693
*1686 FILLER_0_116_699
*1687 FILLER_0_116_701
*1688 FILLER_0_116_713
*1689 FILLER_0_116_725
*1690 FILLER_0_116_737
*1691 FILLER_0_116_749
*1692 FILLER_0_116_755
*1693 FILLER_0_116_757
*1694 FILLER_0_116_769
*1695 FILLER_0_116_77
*1696 FILLER_0_116_777
*1697 FILLER_0_116_83
*1698 FILLER_0_116_85
*1699 FILLER_0_116_97
*1700 FILLER_0_117_105
*1701 FILLER_0_117_111
*1702 FILLER_0_117_113
*1703 FILLER_0_117_125
*1704 FILLER_0_117_137
*1705 FILLER_0_117_149
*1706 FILLER_0_117_15
*1707 FILLER_0_117_161
*1708 FILLER_0_117_167
*1709 FILLER_0_117_169
*1710 FILLER_0_117_181
*1711 FILLER_0_117_193
*1712 FILLER_0_117_205
*1713 FILLER_0_117_217
*1714 FILLER_0_117_223
*1715 FILLER_0_117_225
*1716 FILLER_0_117_237
*1717 FILLER_0_117_249
*1718 FILLER_0_117_261
*1719 FILLER_0_117_27
*1720 FILLER_0_117_273
*1721 FILLER_0_117_279
*1722 FILLER_0_117_281
*1723 FILLER_0_117_293
*1724 FILLER_0_117_3
*1725 FILLER_0_117_305
*1726 FILLER_0_117_317
*1727 FILLER_0_117_329
*1728 FILLER_0_117_335
*1729 FILLER_0_117_337
*1730 FILLER_0_117_349
*1731 FILLER_0_117_361
*1732 FILLER_0_117_373
*1733 FILLER_0_117_385
*1734 FILLER_0_117_39
*1735 FILLER_0_117_391
*1736 FILLER_0_117_393
*1737 FILLER_0_117_405
*1738 FILLER_0_117_417
*1739 FILLER_0_117_429
*1740 FILLER_0_117_441
*1741 FILLER_0_117_447
*1742 FILLER_0_117_449
*1743 FILLER_0_117_461
*1744 FILLER_0_117_473
*1745 FILLER_0_117_485
*1746 FILLER_0_117_497
*1747 FILLER_0_117_503
*1748 FILLER_0_117_505
*1749 FILLER_0_117_51
*1750 FILLER_0_117_517
*1751 FILLER_0_117_529
*1752 FILLER_0_117_541
*1753 FILLER_0_117_55
*1754 FILLER_0_117_553
*1755 FILLER_0_117_559
*1756 FILLER_0_117_561
*1757 FILLER_0_117_57
*1758 FILLER_0_117_573
*1759 FILLER_0_117_585
*1760 FILLER_0_117_597
*1761 FILLER_0_117_609
*1762 FILLER_0_117_615
*1763 FILLER_0_117_617
*1764 FILLER_0_117_629
*1765 FILLER_0_117_641
*1766 FILLER_0_117_653
*1767 FILLER_0_117_665
*1768 FILLER_0_117_671
*1769 FILLER_0_117_673
*1770 FILLER_0_117_685
*1771 FILLER_0_117_69
*1772 FILLER_0_117_697
*1773 FILLER_0_117_709
*1774 FILLER_0_117_721
*1775 FILLER_0_117_727
*1776 FILLER_0_117_729
*1777 FILLER_0_117_741
*1778 FILLER_0_117_753
*1779 FILLER_0_117_765
*1780 FILLER_0_117_777
*1781 FILLER_0_117_81
*1782 FILLER_0_117_93
*1783 FILLER_0_118_109
*1784 FILLER_0_118_121
*1785 FILLER_0_118_133
*1786 FILLER_0_118_139
*1787 FILLER_0_118_141
*1788 FILLER_0_118_15
*1789 FILLER_0_118_153
*1790 FILLER_0_118_165
*1791 FILLER_0_118_177
*1792 FILLER_0_118_189
*1793 FILLER_0_118_195
*1794 FILLER_0_118_197
*1795 FILLER_0_118_209
*1796 FILLER_0_118_221
*1797 FILLER_0_118_233
*1798 FILLER_0_118_245
*1799 FILLER_0_118_251
*1800 FILLER_0_118_253
*1801 FILLER_0_118_265
*1802 FILLER_0_118_27
*1803 FILLER_0_118_277
*1804 FILLER_0_118_289
*1805 FILLER_0_118_29
*1806 FILLER_0_118_3
*1807 FILLER_0_118_301
*1808 FILLER_0_118_307
*1809 FILLER_0_118_309
*1810 FILLER_0_118_321
*1811 FILLER_0_118_333
*1812 FILLER_0_118_345
*1813 FILLER_0_118_357
*1814 FILLER_0_118_363
*1815 FILLER_0_118_365
*1816 FILLER_0_118_377
*1817 FILLER_0_118_389
*1818 FILLER_0_118_401
*1819 FILLER_0_118_41
*1820 FILLER_0_118_413
*1821 FILLER_0_118_419
*1822 FILLER_0_118_421
*1823 FILLER_0_118_433
*1824 FILLER_0_118_445
*1825 FILLER_0_118_457
*1826 FILLER_0_118_469
*1827 FILLER_0_118_475
*1828 FILLER_0_118_477
*1829 FILLER_0_118_489
*1830 FILLER_0_118_501
*1831 FILLER_0_118_513
*1832 FILLER_0_118_525
*1833 FILLER_0_118_53
*1834 FILLER_0_118_531
*1835 FILLER_0_118_533
*1836 FILLER_0_118_545
*1837 FILLER_0_118_557
*1838 FILLER_0_118_569
*1839 FILLER_0_118_581
*1840 FILLER_0_118_587
*1841 FILLER_0_118_589
*1842 FILLER_0_118_601
*1843 FILLER_0_118_613
*1844 FILLER_0_118_625
*1845 FILLER_0_118_637
*1846 FILLER_0_118_643
*1847 FILLER_0_118_645
*1848 FILLER_0_118_65
*1849 FILLER_0_118_657
*1850 FILLER_0_118_669
*1851 FILLER_0_118_681
*1852 FILLER_0_118_693
*1853 FILLER_0_118_699
*1854 FILLER_0_118_701
*1855 FILLER_0_118_713
*1856 FILLER_0_118_725
*1857 FILLER_0_118_737
*1858 FILLER_0_118_749
*1859 FILLER_0_118_755
*1860 FILLER_0_118_757
*1861 FILLER_0_118_769
*1862 FILLER_0_118_77
*1863 FILLER_0_118_777
*1864 FILLER_0_118_83
*1865 FILLER_0_118_85
*1866 FILLER_0_118_97
*1867 FILLER_0_119_105
*1868 FILLER_0_119_111
*1869 FILLER_0_119_113
*1870 FILLER_0_119_125
*1871 FILLER_0_119_137
*1872 FILLER_0_119_149
*1873 FILLER_0_119_15
*1874 FILLER_0_119_161
*1875 FILLER_0_119_167
*1876 FILLER_0_119_169
*1877 FILLER_0_119_181
*1878 FILLER_0_119_193
*1879 FILLER_0_119_205
*1880 FILLER_0_119_217
*1881 FILLER_0_119_223
*1882 FILLER_0_119_225
*1883 FILLER_0_119_237
*1884 FILLER_0_119_249
*1885 FILLER_0_119_261
*1886 FILLER_0_119_27
*1887 FILLER_0_119_273
*1888 FILLER_0_119_279
*1889 FILLER_0_119_281
*1890 FILLER_0_119_293
*1891 FILLER_0_119_3
*1892 FILLER_0_119_305
*1893 FILLER_0_119_317
*1894 FILLER_0_119_329
*1895 FILLER_0_119_335
*1896 FILLER_0_119_337
*1897 FILLER_0_119_349
*1898 FILLER_0_119_361
*1899 FILLER_0_119_373
*1900 FILLER_0_119_385
*1901 FILLER_0_119_39
*1902 FILLER_0_119_391
*1903 FILLER_0_119_393
*1904 FILLER_0_119_405
*1905 FILLER_0_119_417
*1906 FILLER_0_119_429
*1907 FILLER_0_119_441
*1908 FILLER_0_119_447
*1909 FILLER_0_119_449
*1910 FILLER_0_119_461
*1911 FILLER_0_119_473
*1912 FILLER_0_119_485
*1913 FILLER_0_119_497
*1914 FILLER_0_119_503
*1915 FILLER_0_119_505
*1916 FILLER_0_119_51
*1917 FILLER_0_119_517
*1918 FILLER_0_119_529
*1919 FILLER_0_119_541
*1920 FILLER_0_119_55
*1921 FILLER_0_119_553
*1922 FILLER_0_119_559
*1923 FILLER_0_119_561
*1924 FILLER_0_119_57
*1925 FILLER_0_119_573
*1926 FILLER_0_119_585
*1927 FILLER_0_119_597
*1928 FILLER_0_119_609
*1929 FILLER_0_119_615
*1930 FILLER_0_119_617
*1931 FILLER_0_119_629
*1932 FILLER_0_119_641
*1933 FILLER_0_119_653
*1934 FILLER_0_119_665
*1935 FILLER_0_119_671
*1936 FILLER_0_119_673
*1937 FILLER_0_119_685
*1938 FILLER_0_119_69
*1939 FILLER_0_119_697
*1940 FILLER_0_119_709
*1941 FILLER_0_119_721
*1942 FILLER_0_119_727
*1943 FILLER_0_119_729
*1944 FILLER_0_119_741
*1945 FILLER_0_119_753
*1946 FILLER_0_119_765
*1947 FILLER_0_119_777
*1948 FILLER_0_119_81
*1949 FILLER_0_119_93
*1950 FILLER_0_11_105
*1951 FILLER_0_11_111
*1952 FILLER_0_11_113
*1953 FILLER_0_11_125
*1954 FILLER_0_11_137
*1955 FILLER_0_11_149
*1956 FILLER_0_11_15
*1957 FILLER_0_11_161
*1958 FILLER_0_11_167
*1959 FILLER_0_11_169
*1960 FILLER_0_11_181
*1961 FILLER_0_11_193
*1962 FILLER_0_11_205
*1963 FILLER_0_11_217
*1964 FILLER_0_11_223
*1965 FILLER_0_11_225
*1966 FILLER_0_11_237
*1967 FILLER_0_11_249
*1968 FILLER_0_11_261
*1969 FILLER_0_11_27
*1970 FILLER_0_11_273
*1971 FILLER_0_11_279
*1972 FILLER_0_11_281
*1973 FILLER_0_11_293
*1974 FILLER_0_11_3
*1975 FILLER_0_11_305
*1976 FILLER_0_11_317
*1977 FILLER_0_11_329
*1978 FILLER_0_11_335
*1979 FILLER_0_11_337
*1980 FILLER_0_11_349
*1981 FILLER_0_11_361
*1982 FILLER_0_11_373
*1983 FILLER_0_11_385
*1984 FILLER_0_11_39
*1985 FILLER_0_11_391
*1986 FILLER_0_11_393
*1987 FILLER_0_11_405
*1988 FILLER_0_11_417
*1989 FILLER_0_11_429
*1990 FILLER_0_11_441
*1991 FILLER_0_11_447
*1992 FILLER_0_11_449
*1993 FILLER_0_11_461
*1994 FILLER_0_11_473
*1995 FILLER_0_11_485
*1996 FILLER_0_11_497
*1997 FILLER_0_11_503
*1998 FILLER_0_11_505
*1999 FILLER_0_11_51
*2000 FILLER_0_11_517
*2001 FILLER_0_11_529
*2002 FILLER_0_11_541
*2003 FILLER_0_11_55
*2004 FILLER_0_11_553
*2005 FILLER_0_11_559
*2006 FILLER_0_11_561
*2007 FILLER_0_11_57
*2008 FILLER_0_11_573
*2009 FILLER_0_11_585
*2010 FILLER_0_11_597
*2011 FILLER_0_11_609
*2012 FILLER_0_11_615
*2013 FILLER_0_11_617
*2014 FILLER_0_11_629
*2015 FILLER_0_11_641
*2016 FILLER_0_11_653
*2017 FILLER_0_11_665
*2018 FILLER_0_11_671
*2019 FILLER_0_11_673
*2020 FILLER_0_11_685
*2021 FILLER_0_11_69
*2022 FILLER_0_11_697
*2023 FILLER_0_11_709
*2024 FILLER_0_11_721
*2025 FILLER_0_11_727
*2026 FILLER_0_11_729
*2027 FILLER_0_11_741
*2028 FILLER_0_11_753
*2029 FILLER_0_11_765
*2030 FILLER_0_11_777
*2031 FILLER_0_11_81
*2032 FILLER_0_11_93
*2033 FILLER_0_120_109
*2034 FILLER_0_120_121
*2035 FILLER_0_120_133
*2036 FILLER_0_120_139
*2037 FILLER_0_120_141
*2038 FILLER_0_120_15
*2039 FILLER_0_120_153
*2040 FILLER_0_120_165
*2041 FILLER_0_120_177
*2042 FILLER_0_120_189
*2043 FILLER_0_120_195
*2044 FILLER_0_120_197
*2045 FILLER_0_120_209
*2046 FILLER_0_120_221
*2047 FILLER_0_120_233
*2048 FILLER_0_120_245
*2049 FILLER_0_120_251
*2050 FILLER_0_120_253
*2051 FILLER_0_120_265
*2052 FILLER_0_120_27
*2053 FILLER_0_120_277
*2054 FILLER_0_120_289
*2055 FILLER_0_120_29
*2056 FILLER_0_120_3
*2057 FILLER_0_120_301
*2058 FILLER_0_120_307
*2059 FILLER_0_120_309
*2060 FILLER_0_120_321
*2061 FILLER_0_120_333
*2062 FILLER_0_120_345
*2063 FILLER_0_120_357
*2064 FILLER_0_120_363
*2065 FILLER_0_120_365
*2066 FILLER_0_120_377
*2067 FILLER_0_120_389
*2068 FILLER_0_120_401
*2069 FILLER_0_120_41
*2070 FILLER_0_120_413
*2071 FILLER_0_120_419
*2072 FILLER_0_120_421
*2073 FILLER_0_120_433
*2074 FILLER_0_120_445
*2075 FILLER_0_120_457
*2076 FILLER_0_120_469
*2077 FILLER_0_120_475
*2078 FILLER_0_120_477
*2079 FILLER_0_120_489
*2080 FILLER_0_120_501
*2081 FILLER_0_120_513
*2082 FILLER_0_120_525
*2083 FILLER_0_120_53
*2084 FILLER_0_120_531
*2085 FILLER_0_120_533
*2086 FILLER_0_120_545
*2087 FILLER_0_120_557
*2088 FILLER_0_120_569
*2089 FILLER_0_120_581
*2090 FILLER_0_120_587
*2091 FILLER_0_120_589
*2092 FILLER_0_120_601
*2093 FILLER_0_120_613
*2094 FILLER_0_120_625
*2095 FILLER_0_120_637
*2096 FILLER_0_120_643
*2097 FILLER_0_120_645
*2098 FILLER_0_120_65
*2099 FILLER_0_120_657
*2100 FILLER_0_120_669
*2101 FILLER_0_120_681
*2102 FILLER_0_120_693
*2103 FILLER_0_120_699
*2104 FILLER_0_120_701
*2105 FILLER_0_120_713
*2106 FILLER_0_120_725
*2107 FILLER_0_120_737
*2108 FILLER_0_120_749
*2109 FILLER_0_120_755
*2110 FILLER_0_120_757
*2111 FILLER_0_120_769
*2112 FILLER_0_120_77
*2113 FILLER_0_120_777
*2114 FILLER_0_120_83
*2115 FILLER_0_120_85
*2116 FILLER_0_120_97
*2117 FILLER_0_121_105
*2118 FILLER_0_121_111
*2119 FILLER_0_121_113
*2120 FILLER_0_121_125
*2121 FILLER_0_121_137
*2122 FILLER_0_121_149
*2123 FILLER_0_121_15
*2124 FILLER_0_121_161
*2125 FILLER_0_121_167
*2126 FILLER_0_121_169
*2127 FILLER_0_121_181
*2128 FILLER_0_121_193
*2129 FILLER_0_121_205
*2130 FILLER_0_121_217
*2131 FILLER_0_121_223
*2132 FILLER_0_121_225
*2133 FILLER_0_121_237
*2134 FILLER_0_121_249
*2135 FILLER_0_121_261
*2136 FILLER_0_121_27
*2137 FILLER_0_121_273
*2138 FILLER_0_121_279
*2139 FILLER_0_121_281
*2140 FILLER_0_121_293
*2141 FILLER_0_121_3
*2142 FILLER_0_121_305
*2143 FILLER_0_121_317
*2144 FILLER_0_121_329
*2145 FILLER_0_121_335
*2146 FILLER_0_121_337
*2147 FILLER_0_121_349
*2148 FILLER_0_121_361
*2149 FILLER_0_121_373
*2150 FILLER_0_121_385
*2151 FILLER_0_121_39
*2152 FILLER_0_121_391
*2153 FILLER_0_121_393
*2154 FILLER_0_121_405
*2155 FILLER_0_121_417
*2156 FILLER_0_121_429
*2157 FILLER_0_121_441
*2158 FILLER_0_121_447
*2159 FILLER_0_121_449
*2160 FILLER_0_121_461
*2161 FILLER_0_121_473
*2162 FILLER_0_121_485
*2163 FILLER_0_121_497
*2164 FILLER_0_121_503
*2165 FILLER_0_121_505
*2166 FILLER_0_121_51
*2167 FILLER_0_121_517
*2168 FILLER_0_121_529
*2169 FILLER_0_121_541
*2170 FILLER_0_121_55
*2171 FILLER_0_121_553
*2172 FILLER_0_121_559
*2173 FILLER_0_121_561
*2174 FILLER_0_121_57
*2175 FILLER_0_121_573
*2176 FILLER_0_121_585
*2177 FILLER_0_121_597
*2178 FILLER_0_121_609
*2179 FILLER_0_121_615
*2180 FILLER_0_121_617
*2181 FILLER_0_121_629
*2182 FILLER_0_121_641
*2183 FILLER_0_121_653
*2184 FILLER_0_121_665
*2185 FILLER_0_121_671
*2186 FILLER_0_121_673
*2187 FILLER_0_121_685
*2188 FILLER_0_121_69
*2189 FILLER_0_121_697
*2190 FILLER_0_121_709
*2191 FILLER_0_121_721
*2192 FILLER_0_121_727
*2193 FILLER_0_121_729
*2194 FILLER_0_121_741
*2195 FILLER_0_121_753
*2196 FILLER_0_121_765
*2197 FILLER_0_121_777
*2198 FILLER_0_121_81
*2199 FILLER_0_121_93
*2200 FILLER_0_122_109
*2201 FILLER_0_122_121
*2202 FILLER_0_122_133
*2203 FILLER_0_122_139
*2204 FILLER_0_122_141
*2205 FILLER_0_122_15
*2206 FILLER_0_122_153
*2207 FILLER_0_122_165
*2208 FILLER_0_122_177
*2209 FILLER_0_122_189
*2210 FILLER_0_122_195
*2211 FILLER_0_122_197
*2212 FILLER_0_122_209
*2213 FILLER_0_122_221
*2214 FILLER_0_122_233
*2215 FILLER_0_122_245
*2216 FILLER_0_122_251
*2217 FILLER_0_122_253
*2218 FILLER_0_122_265
*2219 FILLER_0_122_27
*2220 FILLER_0_122_277
*2221 FILLER_0_122_289
*2222 FILLER_0_122_29
*2223 FILLER_0_122_3
*2224 FILLER_0_122_301
*2225 FILLER_0_122_307
*2226 FILLER_0_122_309
*2227 FILLER_0_122_321
*2228 FILLER_0_122_333
*2229 FILLER_0_122_345
*2230 FILLER_0_122_357
*2231 FILLER_0_122_363
*2232 FILLER_0_122_365
*2233 FILLER_0_122_377
*2234 FILLER_0_122_389
*2235 FILLER_0_122_401
*2236 FILLER_0_122_41
*2237 FILLER_0_122_413
*2238 FILLER_0_122_419
*2239 FILLER_0_122_421
*2240 FILLER_0_122_433
*2241 FILLER_0_122_445
*2242 FILLER_0_122_457
*2243 FILLER_0_122_469
*2244 FILLER_0_122_475
*2245 FILLER_0_122_477
*2246 FILLER_0_122_489
*2247 FILLER_0_122_501
*2248 FILLER_0_122_513
*2249 FILLER_0_122_525
*2250 FILLER_0_122_53
*2251 FILLER_0_122_531
*2252 FILLER_0_122_533
*2253 FILLER_0_122_545
*2254 FILLER_0_122_557
*2255 FILLER_0_122_569
*2256 FILLER_0_122_581
*2257 FILLER_0_122_587
*2258 FILLER_0_122_589
*2259 FILLER_0_122_601
*2260 FILLER_0_122_613
*2261 FILLER_0_122_625
*2262 FILLER_0_122_637
*2263 FILLER_0_122_643
*2264 FILLER_0_122_645
*2265 FILLER_0_122_65
*2266 FILLER_0_122_657
*2267 FILLER_0_122_669
*2268 FILLER_0_122_681
*2269 FILLER_0_122_693
*2270 FILLER_0_122_699
*2271 FILLER_0_122_701
*2272 FILLER_0_122_713
*2273 FILLER_0_122_725
*2274 FILLER_0_122_737
*2275 FILLER_0_122_749
*2276 FILLER_0_122_755
*2277 FILLER_0_122_757
*2278 FILLER_0_122_769
*2279 FILLER_0_122_77
*2280 FILLER_0_122_777
*2281 FILLER_0_122_83
*2282 FILLER_0_122_85
*2283 FILLER_0_122_97
*2284 FILLER_0_123_105
*2285 FILLER_0_123_111
*2286 FILLER_0_123_113
*2287 FILLER_0_123_125
*2288 FILLER_0_123_137
*2289 FILLER_0_123_149
*2290 FILLER_0_123_15
*2291 FILLER_0_123_161
*2292 FILLER_0_123_167
*2293 FILLER_0_123_169
*2294 FILLER_0_123_181
*2295 FILLER_0_123_193
*2296 FILLER_0_123_205
*2297 FILLER_0_123_217
*2298 FILLER_0_123_223
*2299 FILLER_0_123_225
*2300 FILLER_0_123_237
*2301 FILLER_0_123_249
*2302 FILLER_0_123_261
*2303 FILLER_0_123_27
*2304 FILLER_0_123_273
*2305 FILLER_0_123_279
*2306 FILLER_0_123_281
*2307 FILLER_0_123_293
*2308 FILLER_0_123_3
*2309 FILLER_0_123_305
*2310 FILLER_0_123_317
*2311 FILLER_0_123_329
*2312 FILLER_0_123_335
*2313 FILLER_0_123_337
*2314 FILLER_0_123_349
*2315 FILLER_0_123_361
*2316 FILLER_0_123_373
*2317 FILLER_0_123_385
*2318 FILLER_0_123_39
*2319 FILLER_0_123_391
*2320 FILLER_0_123_393
*2321 FILLER_0_123_405
*2322 FILLER_0_123_417
*2323 FILLER_0_123_429
*2324 FILLER_0_123_441
*2325 FILLER_0_123_447
*2326 FILLER_0_123_449
*2327 FILLER_0_123_461
*2328 FILLER_0_123_473
*2329 FILLER_0_123_485
*2330 FILLER_0_123_497
*2331 FILLER_0_123_503
*2332 FILLER_0_123_505
*2333 FILLER_0_123_51
*2334 FILLER_0_123_517
*2335 FILLER_0_123_529
*2336 FILLER_0_123_541
*2337 FILLER_0_123_55
*2338 FILLER_0_123_553
*2339 FILLER_0_123_559
*2340 FILLER_0_123_561
*2341 FILLER_0_123_57
*2342 FILLER_0_123_573
*2343 FILLER_0_123_585
*2344 FILLER_0_123_597
*2345 FILLER_0_123_609
*2346 FILLER_0_123_615
*2347 FILLER_0_123_617
*2348 FILLER_0_123_629
*2349 FILLER_0_123_641
*2350 FILLER_0_123_653
*2351 FILLER_0_123_665
*2352 FILLER_0_123_671
*2353 FILLER_0_123_673
*2354 FILLER_0_123_685
*2355 FILLER_0_123_69
*2356 FILLER_0_123_697
*2357 FILLER_0_123_709
*2358 FILLER_0_123_721
*2359 FILLER_0_123_727
*2360 FILLER_0_123_729
*2361 FILLER_0_123_741
*2362 FILLER_0_123_753
*2363 FILLER_0_123_765
*2364 FILLER_0_123_777
*2365 FILLER_0_123_81
*2366 FILLER_0_123_93
*2367 FILLER_0_124_109
*2368 FILLER_0_124_121
*2369 FILLER_0_124_133
*2370 FILLER_0_124_139
*2371 FILLER_0_124_141
*2372 FILLER_0_124_15
*2373 FILLER_0_124_153
*2374 FILLER_0_124_165
*2375 FILLER_0_124_177
*2376 FILLER_0_124_189
*2377 FILLER_0_124_195
*2378 FILLER_0_124_197
*2379 FILLER_0_124_209
*2380 FILLER_0_124_221
*2381 FILLER_0_124_233
*2382 FILLER_0_124_245
*2383 FILLER_0_124_251
*2384 FILLER_0_124_253
*2385 FILLER_0_124_265
*2386 FILLER_0_124_27
*2387 FILLER_0_124_277
*2388 FILLER_0_124_289
*2389 FILLER_0_124_29
*2390 FILLER_0_124_3
*2391 FILLER_0_124_301
*2392 FILLER_0_124_307
*2393 FILLER_0_124_309
*2394 FILLER_0_124_321
*2395 FILLER_0_124_333
*2396 FILLER_0_124_345
*2397 FILLER_0_124_357
*2398 FILLER_0_124_363
*2399 FILLER_0_124_365
*2400 FILLER_0_124_377
*2401 FILLER_0_124_389
*2402 FILLER_0_124_401
*2403 FILLER_0_124_41
*2404 FILLER_0_124_413
*2405 FILLER_0_124_419
*2406 FILLER_0_124_421
*2407 FILLER_0_124_433
*2408 FILLER_0_124_445
*2409 FILLER_0_124_457
*2410 FILLER_0_124_469
*2411 FILLER_0_124_475
*2412 FILLER_0_124_477
*2413 FILLER_0_124_489
*2414 FILLER_0_124_501
*2415 FILLER_0_124_513
*2416 FILLER_0_124_525
*2417 FILLER_0_124_53
*2418 FILLER_0_124_531
*2419 FILLER_0_124_533
*2420 FILLER_0_124_545
*2421 FILLER_0_124_557
*2422 FILLER_0_124_569
*2423 FILLER_0_124_581
*2424 FILLER_0_124_587
*2425 FILLER_0_124_589
*2426 FILLER_0_124_601
*2427 FILLER_0_124_613
*2428 FILLER_0_124_625
*2429 FILLER_0_124_637
*2430 FILLER_0_124_643
*2431 FILLER_0_124_645
*2432 FILLER_0_124_65
*2433 FILLER_0_124_657
*2434 FILLER_0_124_669
*2435 FILLER_0_124_681
*2436 FILLER_0_124_693
*2437 FILLER_0_124_699
*2438 FILLER_0_124_701
*2439 FILLER_0_124_713
*2440 FILLER_0_124_725
*2441 FILLER_0_124_737
*2442 FILLER_0_124_749
*2443 FILLER_0_124_755
*2444 FILLER_0_124_757
*2445 FILLER_0_124_769
*2446 FILLER_0_124_77
*2447 FILLER_0_124_777
*2448 FILLER_0_124_83
*2449 FILLER_0_124_85
*2450 FILLER_0_124_97
*2451 FILLER_0_125_105
*2452 FILLER_0_125_111
*2453 FILLER_0_125_113
*2454 FILLER_0_125_125
*2455 FILLER_0_125_137
*2456 FILLER_0_125_149
*2457 FILLER_0_125_15
*2458 FILLER_0_125_161
*2459 FILLER_0_125_167
*2460 FILLER_0_125_169
*2461 FILLER_0_125_181
*2462 FILLER_0_125_193
*2463 FILLER_0_125_205
*2464 FILLER_0_125_217
*2465 FILLER_0_125_223
*2466 FILLER_0_125_225
*2467 FILLER_0_125_237
*2468 FILLER_0_125_249
*2469 FILLER_0_125_261
*2470 FILLER_0_125_27
*2471 FILLER_0_125_273
*2472 FILLER_0_125_279
*2473 FILLER_0_125_281
*2474 FILLER_0_125_293
*2475 FILLER_0_125_3
*2476 FILLER_0_125_305
*2477 FILLER_0_125_317
*2478 FILLER_0_125_329
*2479 FILLER_0_125_335
*2480 FILLER_0_125_337
*2481 FILLER_0_125_349
*2482 FILLER_0_125_361
*2483 FILLER_0_125_373
*2484 FILLER_0_125_385
*2485 FILLER_0_125_39
*2486 FILLER_0_125_391
*2487 FILLER_0_125_393
*2488 FILLER_0_125_405
*2489 FILLER_0_125_417
*2490 FILLER_0_125_429
*2491 FILLER_0_125_441
*2492 FILLER_0_125_447
*2493 FILLER_0_125_449
*2494 FILLER_0_125_461
*2495 FILLER_0_125_473
*2496 FILLER_0_125_485
*2497 FILLER_0_125_497
*2498 FILLER_0_125_503
*2499 FILLER_0_125_505
*2500 FILLER_0_125_51
*2501 FILLER_0_125_517
*2502 FILLER_0_125_529
*2503 FILLER_0_125_541
*2504 FILLER_0_125_55
*2505 FILLER_0_125_553
*2506 FILLER_0_125_559
*2507 FILLER_0_125_561
*2508 FILLER_0_125_57
*2509 FILLER_0_125_573
*2510 FILLER_0_125_585
*2511 FILLER_0_125_597
*2512 FILLER_0_125_609
*2513 FILLER_0_125_615
*2514 FILLER_0_125_617
*2515 FILLER_0_125_629
*2516 FILLER_0_125_641
*2517 FILLER_0_125_653
*2518 FILLER_0_125_665
*2519 FILLER_0_125_671
*2520 FILLER_0_125_673
*2521 FILLER_0_125_685
*2522 FILLER_0_125_69
*2523 FILLER_0_125_697
*2524 FILLER_0_125_709
*2525 FILLER_0_125_721
*2526 FILLER_0_125_727
*2527 FILLER_0_125_729
*2528 FILLER_0_125_741
*2529 FILLER_0_125_753
*2530 FILLER_0_125_765
*2531 FILLER_0_125_777
*2532 FILLER_0_125_81
*2533 FILLER_0_125_93
*2534 FILLER_0_126_109
*2535 FILLER_0_126_121
*2536 FILLER_0_126_133
*2537 FILLER_0_126_139
*2538 FILLER_0_126_141
*2539 FILLER_0_126_15
*2540 FILLER_0_126_153
*2541 FILLER_0_126_165
*2542 FILLER_0_126_177
*2543 FILLER_0_126_189
*2544 FILLER_0_126_195
*2545 FILLER_0_126_197
*2546 FILLER_0_126_209
*2547 FILLER_0_126_221
*2548 FILLER_0_126_233
*2549 FILLER_0_126_245
*2550 FILLER_0_126_251
*2551 FILLER_0_126_253
*2552 FILLER_0_126_265
*2553 FILLER_0_126_27
*2554 FILLER_0_126_277
*2555 FILLER_0_126_289
*2556 FILLER_0_126_29
*2557 FILLER_0_126_3
*2558 FILLER_0_126_301
*2559 FILLER_0_126_307
*2560 FILLER_0_126_309
*2561 FILLER_0_126_321
*2562 FILLER_0_126_333
*2563 FILLER_0_126_345
*2564 FILLER_0_126_357
*2565 FILLER_0_126_363
*2566 FILLER_0_126_365
*2567 FILLER_0_126_377
*2568 FILLER_0_126_389
*2569 FILLER_0_126_401
*2570 FILLER_0_126_41
*2571 FILLER_0_126_413
*2572 FILLER_0_126_419
*2573 FILLER_0_126_421
*2574 FILLER_0_126_433
*2575 FILLER_0_126_445
*2576 FILLER_0_126_457
*2577 FILLER_0_126_469
*2578 FILLER_0_126_475
*2579 FILLER_0_126_477
*2580 FILLER_0_126_489
*2581 FILLER_0_126_501
*2582 FILLER_0_126_513
*2583 FILLER_0_126_525
*2584 FILLER_0_126_53
*2585 FILLER_0_126_531
*2586 FILLER_0_126_533
*2587 FILLER_0_126_545
*2588 FILLER_0_126_557
*2589 FILLER_0_126_569
*2590 FILLER_0_126_581
*2591 FILLER_0_126_587
*2592 FILLER_0_126_589
*2593 FILLER_0_126_601
*2594 FILLER_0_126_613
*2595 FILLER_0_126_625
*2596 FILLER_0_126_637
*2597 FILLER_0_126_643
*2598 FILLER_0_126_645
*2599 FILLER_0_126_65
*2600 FILLER_0_126_657
*2601 FILLER_0_126_669
*2602 FILLER_0_126_681
*2603 FILLER_0_126_693
*2604 FILLER_0_126_699
*2605 FILLER_0_126_701
*2606 FILLER_0_126_713
*2607 FILLER_0_126_725
*2608 FILLER_0_126_737
*2609 FILLER_0_126_749
*2610 FILLER_0_126_755
*2611 FILLER_0_126_757
*2612 FILLER_0_126_769
*2613 FILLER_0_126_77
*2614 FILLER_0_126_777
*2615 FILLER_0_126_83
*2616 FILLER_0_126_85
*2617 FILLER_0_126_97
*2618 FILLER_0_127_105
*2619 FILLER_0_127_111
*2620 FILLER_0_127_113
*2621 FILLER_0_127_125
*2622 FILLER_0_127_137
*2623 FILLER_0_127_149
*2624 FILLER_0_127_15
*2625 FILLER_0_127_161
*2626 FILLER_0_127_167
*2627 FILLER_0_127_169
*2628 FILLER_0_127_181
*2629 FILLER_0_127_193
*2630 FILLER_0_127_205
*2631 FILLER_0_127_217
*2632 FILLER_0_127_223
*2633 FILLER_0_127_225
*2634 FILLER_0_127_237
*2635 FILLER_0_127_249
*2636 FILLER_0_127_261
*2637 FILLER_0_127_27
*2638 FILLER_0_127_273
*2639 FILLER_0_127_279
*2640 FILLER_0_127_281
*2641 FILLER_0_127_293
*2642 FILLER_0_127_3
*2643 FILLER_0_127_305
*2644 FILLER_0_127_317
*2645 FILLER_0_127_329
*2646 FILLER_0_127_335
*2647 FILLER_0_127_337
*2648 FILLER_0_127_349
*2649 FILLER_0_127_361
*2650 FILLER_0_127_373
*2651 FILLER_0_127_385
*2652 FILLER_0_127_39
*2653 FILLER_0_127_391
*2654 FILLER_0_127_393
*2655 FILLER_0_127_405
*2656 FILLER_0_127_417
*2657 FILLER_0_127_429
*2658 FILLER_0_127_441
*2659 FILLER_0_127_447
*2660 FILLER_0_127_449
*2661 FILLER_0_127_461
*2662 FILLER_0_127_473
*2663 FILLER_0_127_485
*2664 FILLER_0_127_497
*2665 FILLER_0_127_503
*2666 FILLER_0_127_505
*2667 FILLER_0_127_51
*2668 FILLER_0_127_517
*2669 FILLER_0_127_529
*2670 FILLER_0_127_541
*2671 FILLER_0_127_55
*2672 FILLER_0_127_553
*2673 FILLER_0_127_559
*2674 FILLER_0_127_561
*2675 FILLER_0_127_57
*2676 FILLER_0_127_573
*2677 FILLER_0_127_585
*2678 FILLER_0_127_597
*2679 FILLER_0_127_609
*2680 FILLER_0_127_615
*2681 FILLER_0_127_617
*2682 FILLER_0_127_629
*2683 FILLER_0_127_641
*2684 FILLER_0_127_653
*2685 FILLER_0_127_665
*2686 FILLER_0_127_671
*2687 FILLER_0_127_673
*2688 FILLER_0_127_685
*2689 FILLER_0_127_69
*2690 FILLER_0_127_697
*2691 FILLER_0_127_709
*2692 FILLER_0_127_721
*2693 FILLER_0_127_727
*2694 FILLER_0_127_729
*2695 FILLER_0_127_741
*2696 FILLER_0_127_753
*2697 FILLER_0_127_765
*2698 FILLER_0_127_777
*2699 FILLER_0_127_81
*2700 FILLER_0_127_93
*2701 FILLER_0_128_109
*2702 FILLER_0_128_121
*2703 FILLER_0_128_133
*2704 FILLER_0_128_139
*2705 FILLER_0_128_141
*2706 FILLER_0_128_15
*2707 FILLER_0_128_153
*2708 FILLER_0_128_165
*2709 FILLER_0_128_177
*2710 FILLER_0_128_189
*2711 FILLER_0_128_195
*2712 FILLER_0_128_197
*2713 FILLER_0_128_209
*2714 FILLER_0_128_221
*2715 FILLER_0_128_233
*2716 FILLER_0_128_245
*2717 FILLER_0_128_251
*2718 FILLER_0_128_253
*2719 FILLER_0_128_265
*2720 FILLER_0_128_27
*2721 FILLER_0_128_277
*2722 FILLER_0_128_289
*2723 FILLER_0_128_29
*2724 FILLER_0_128_3
*2725 FILLER_0_128_301
*2726 FILLER_0_128_307
*2727 FILLER_0_128_309
*2728 FILLER_0_128_321
*2729 FILLER_0_128_333
*2730 FILLER_0_128_345
*2731 FILLER_0_128_357
*2732 FILLER_0_128_363
*2733 FILLER_0_128_365
*2734 FILLER_0_128_377
*2735 FILLER_0_128_389
*2736 FILLER_0_128_401
*2737 FILLER_0_128_41
*2738 FILLER_0_128_413
*2739 FILLER_0_128_419
*2740 FILLER_0_128_421
*2741 FILLER_0_128_433
*2742 FILLER_0_128_445
*2743 FILLER_0_128_457
*2744 FILLER_0_128_469
*2745 FILLER_0_128_475
*2746 FILLER_0_128_477
*2747 FILLER_0_128_489
*2748 FILLER_0_128_501
*2749 FILLER_0_128_513
*2750 FILLER_0_128_525
*2751 FILLER_0_128_53
*2752 FILLER_0_128_531
*2753 FILLER_0_128_533
*2754 FILLER_0_128_545
*2755 FILLER_0_128_557
*2756 FILLER_0_128_569
*2757 FILLER_0_128_581
*2758 FILLER_0_128_587
*2759 FILLER_0_128_589
*2760 FILLER_0_128_601
*2761 FILLER_0_128_613
*2762 FILLER_0_128_625
*2763 FILLER_0_128_637
*2764 FILLER_0_128_643
*2765 FILLER_0_128_645
*2766 FILLER_0_128_65
*2767 FILLER_0_128_657
*2768 FILLER_0_128_669
*2769 FILLER_0_128_681
*2770 FILLER_0_128_693
*2771 FILLER_0_128_699
*2772 FILLER_0_128_701
*2773 FILLER_0_128_713
*2774 FILLER_0_128_725
*2775 FILLER_0_128_737
*2776 FILLER_0_128_749
*2777 FILLER_0_128_755
*2778 FILLER_0_128_757
*2779 FILLER_0_128_769
*2780 FILLER_0_128_77
*2781 FILLER_0_128_777
*2782 FILLER_0_128_83
*2783 FILLER_0_128_85
*2784 FILLER_0_128_97
*2785 FILLER_0_129_105
*2786 FILLER_0_129_111
*2787 FILLER_0_129_113
*2788 FILLER_0_129_125
*2789 FILLER_0_129_137
*2790 FILLER_0_129_149
*2791 FILLER_0_129_15
*2792 FILLER_0_129_161
*2793 FILLER_0_129_167
*2794 FILLER_0_129_169
*2795 FILLER_0_129_181
*2796 FILLER_0_129_193
*2797 FILLER_0_129_205
*2798 FILLER_0_129_217
*2799 FILLER_0_129_223
*2800 FILLER_0_129_225
*2801 FILLER_0_129_237
*2802 FILLER_0_129_249
*2803 FILLER_0_129_261
*2804 FILLER_0_129_27
*2805 FILLER_0_129_273
*2806 FILLER_0_129_279
*2807 FILLER_0_129_281
*2808 FILLER_0_129_293
*2809 FILLER_0_129_3
*2810 FILLER_0_129_305
*2811 FILLER_0_129_317
*2812 FILLER_0_129_329
*2813 FILLER_0_129_335
*2814 FILLER_0_129_337
*2815 FILLER_0_129_349
*2816 FILLER_0_129_361
*2817 FILLER_0_129_373
*2818 FILLER_0_129_385
*2819 FILLER_0_129_39
*2820 FILLER_0_129_391
*2821 FILLER_0_129_393
*2822 FILLER_0_129_405
*2823 FILLER_0_129_417
*2824 FILLER_0_129_429
*2825 FILLER_0_129_441
*2826 FILLER_0_129_447
*2827 FILLER_0_129_449
*2828 FILLER_0_129_461
*2829 FILLER_0_129_473
*2830 FILLER_0_129_485
*2831 FILLER_0_129_497
*2832 FILLER_0_129_503
*2833 FILLER_0_129_505
*2834 FILLER_0_129_51
*2835 FILLER_0_129_517
*2836 FILLER_0_129_529
*2837 FILLER_0_129_541
*2838 FILLER_0_129_55
*2839 FILLER_0_129_553
*2840 FILLER_0_129_559
*2841 FILLER_0_129_561
*2842 FILLER_0_129_57
*2843 FILLER_0_129_573
*2844 FILLER_0_129_585
*2845 FILLER_0_129_597
*2846 FILLER_0_129_609
*2847 FILLER_0_129_615
*2848 FILLER_0_129_617
*2849 FILLER_0_129_629
*2850 FILLER_0_129_641
*2851 FILLER_0_129_653
*2852 FILLER_0_129_665
*2853 FILLER_0_129_671
*2854 FILLER_0_129_673
*2855 FILLER_0_129_685
*2856 FILLER_0_129_69
*2857 FILLER_0_129_697
*2858 FILLER_0_129_709
*2859 FILLER_0_129_721
*2860 FILLER_0_129_727
*2861 FILLER_0_129_729
*2862 FILLER_0_129_741
*2863 FILLER_0_129_753
*2864 FILLER_0_129_765
*2865 FILLER_0_129_777
*2866 FILLER_0_129_81
*2867 FILLER_0_129_93
*2868 FILLER_0_12_109
*2869 FILLER_0_12_121
*2870 FILLER_0_12_133
*2871 FILLER_0_12_139
*2872 FILLER_0_12_141
*2873 FILLER_0_12_15
*2874 FILLER_0_12_153
*2875 FILLER_0_12_165
*2876 FILLER_0_12_177
*2877 FILLER_0_12_189
*2878 FILLER_0_12_195
*2879 FILLER_0_12_197
*2880 FILLER_0_12_209
*2881 FILLER_0_12_221
*2882 FILLER_0_12_233
*2883 FILLER_0_12_245
*2884 FILLER_0_12_251
*2885 FILLER_0_12_253
*2886 FILLER_0_12_265
*2887 FILLER_0_12_27
*2888 FILLER_0_12_277
*2889 FILLER_0_12_289
*2890 FILLER_0_12_29
*2891 FILLER_0_12_3
*2892 FILLER_0_12_301
*2893 FILLER_0_12_307
*2894 FILLER_0_12_309
*2895 FILLER_0_12_321
*2896 FILLER_0_12_333
*2897 FILLER_0_12_345
*2898 FILLER_0_12_357
*2899 FILLER_0_12_363
*2900 FILLER_0_12_365
*2901 FILLER_0_12_377
*2902 FILLER_0_12_389
*2903 FILLER_0_12_401
*2904 FILLER_0_12_41
*2905 FILLER_0_12_413
*2906 FILLER_0_12_419
*2907 FILLER_0_12_421
*2908 FILLER_0_12_433
*2909 FILLER_0_12_445
*2910 FILLER_0_12_457
*2911 FILLER_0_12_469
*2912 FILLER_0_12_475
*2913 FILLER_0_12_477
*2914 FILLER_0_12_489
*2915 FILLER_0_12_501
*2916 FILLER_0_12_513
*2917 FILLER_0_12_525
*2918 FILLER_0_12_53
*2919 FILLER_0_12_531
*2920 FILLER_0_12_533
*2921 FILLER_0_12_545
*2922 FILLER_0_12_557
*2923 FILLER_0_12_569
*2924 FILLER_0_12_581
*2925 FILLER_0_12_587
*2926 FILLER_0_12_589
*2927 FILLER_0_12_601
*2928 FILLER_0_12_613
*2929 FILLER_0_12_625
*2930 FILLER_0_12_637
*2931 FILLER_0_12_643
*2932 FILLER_0_12_645
*2933 FILLER_0_12_65
*2934 FILLER_0_12_657
*2935 FILLER_0_12_669
*2936 FILLER_0_12_681
*2937 FILLER_0_12_693
*2938 FILLER_0_12_699
*2939 FILLER_0_12_701
*2940 FILLER_0_12_713
*2941 FILLER_0_12_725
*2942 FILLER_0_12_737
*2943 FILLER_0_12_749
*2944 FILLER_0_12_755
*2945 FILLER_0_12_757
*2946 FILLER_0_12_769
*2947 FILLER_0_12_77
*2948 FILLER_0_12_777
*2949 FILLER_0_12_83
*2950 FILLER_0_12_85
*2951 FILLER_0_12_97
*2952 FILLER_0_130_109
*2953 FILLER_0_130_113
*2954 FILLER_0_130_125
*2955 FILLER_0_130_137
*2956 FILLER_0_130_141
*2957 FILLER_0_130_153
*2958 FILLER_0_130_165
*2959 FILLER_0_130_169
*2960 FILLER_0_130_181
*2961 FILLER_0_130_193
*2962 FILLER_0_130_197
*2963 FILLER_0_130_209
*2964 FILLER_0_130_21
*2965 FILLER_0_130_221
*2966 FILLER_0_130_225
*2967 FILLER_0_130_237
*2968 FILLER_0_130_249
*2969 FILLER_0_130_253
*2970 FILLER_0_130_265
*2971 FILLER_0_130_27
*2972 FILLER_0_130_277
*2973 FILLER_0_130_281
*2974 FILLER_0_130_29
*2975 FILLER_0_130_293
*2976 FILLER_0_130_305
*2977 FILLER_0_130_309
*2978 FILLER_0_130_321
*2979 FILLER_0_130_333
*2980 FILLER_0_130_337
*2981 FILLER_0_130_349
*2982 FILLER_0_130_361
*2983 FILLER_0_130_365
*2984 FILLER_0_130_377
*2985 FILLER_0_130_389
*2986 FILLER_0_130_393
*2987 FILLER_0_130_409
*2988 FILLER_0_130_41
*2989 FILLER_0_130_417
*2990 FILLER_0_130_421
*2991 FILLER_0_130_433
*2992 FILLER_0_130_445
*2993 FILLER_0_130_449
*2994 FILLER_0_130_461
*2995 FILLER_0_130_473
*2996 FILLER_0_130_477
*2997 FILLER_0_130_489
*2998 FILLER_0_130_501
*2999 FILLER_0_130_505
*3000 FILLER_0_130_517
*3001 FILLER_0_130_529
*3002 FILLER_0_130_53
*3003 FILLER_0_130_533
*3004 FILLER_0_130_545
*3005 FILLER_0_130_557
*3006 FILLER_0_130_561
*3007 FILLER_0_130_57
*3008 FILLER_0_130_573
*3009 FILLER_0_130_585
*3010 FILLER_0_130_589
*3011 FILLER_0_130_601
*3012 FILLER_0_130_613
*3013 FILLER_0_130_623
*3014 FILLER_0_130_635
*3015 FILLER_0_130_643
*3016 FILLER_0_130_645
*3017 FILLER_0_130_657
*3018 FILLER_0_130_669
*3019 FILLER_0_130_673
*3020 FILLER_0_130_685
*3021 FILLER_0_130_69
*3022 FILLER_0_130_697
*3023 FILLER_0_130_701
*3024 FILLER_0_130_713
*3025 FILLER_0_130_725
*3026 FILLER_0_130_729
*3027 FILLER_0_130_741
*3028 FILLER_0_130_753
*3029 FILLER_0_130_757
*3030 FILLER_0_130_769
*3031 FILLER_0_130_81
*3032 FILLER_0_130_85
*3033 FILLER_0_130_9
*3034 FILLER_0_130_97
*3035 FILLER_0_13_105
*3036 FILLER_0_13_111
*3037 FILLER_0_13_113
*3038 FILLER_0_13_125
*3039 FILLER_0_13_137
*3040 FILLER_0_13_149
*3041 FILLER_0_13_15
*3042 FILLER_0_13_161
*3043 FILLER_0_13_167
*3044 FILLER_0_13_169
*3045 FILLER_0_13_181
*3046 FILLER_0_13_193
*3047 FILLER_0_13_205
*3048 FILLER_0_13_217
*3049 FILLER_0_13_223
*3050 FILLER_0_13_225
*3051 FILLER_0_13_237
*3052 FILLER_0_13_249
*3053 FILLER_0_13_261
*3054 FILLER_0_13_27
*3055 FILLER_0_13_273
*3056 FILLER_0_13_279
*3057 FILLER_0_13_281
*3058 FILLER_0_13_293
*3059 FILLER_0_13_3
*3060 FILLER_0_13_305
*3061 FILLER_0_13_317
*3062 FILLER_0_13_329
*3063 FILLER_0_13_335
*3064 FILLER_0_13_337
*3065 FILLER_0_13_349
*3066 FILLER_0_13_361
*3067 FILLER_0_13_373
*3068 FILLER_0_13_385
*3069 FILLER_0_13_39
*3070 FILLER_0_13_391
*3071 FILLER_0_13_393
*3072 FILLER_0_13_405
*3073 FILLER_0_13_417
*3074 FILLER_0_13_429
*3075 FILLER_0_13_441
*3076 FILLER_0_13_447
*3077 FILLER_0_13_449
*3078 FILLER_0_13_461
*3079 FILLER_0_13_473
*3080 FILLER_0_13_485
*3081 FILLER_0_13_497
*3082 FILLER_0_13_503
*3083 FILLER_0_13_505
*3084 FILLER_0_13_51
*3085 FILLER_0_13_517
*3086 FILLER_0_13_529
*3087 FILLER_0_13_541
*3088 FILLER_0_13_55
*3089 FILLER_0_13_553
*3090 FILLER_0_13_559
*3091 FILLER_0_13_561
*3092 FILLER_0_13_57
*3093 FILLER_0_13_573
*3094 FILLER_0_13_585
*3095 FILLER_0_13_597
*3096 FILLER_0_13_609
*3097 FILLER_0_13_615
*3098 FILLER_0_13_617
*3099 FILLER_0_13_629
*3100 FILLER_0_13_641
*3101 FILLER_0_13_653
*3102 FILLER_0_13_665
*3103 FILLER_0_13_671
*3104 FILLER_0_13_673
*3105 FILLER_0_13_685
*3106 FILLER_0_13_69
*3107 FILLER_0_13_697
*3108 FILLER_0_13_709
*3109 FILLER_0_13_721
*3110 FILLER_0_13_727
*3111 FILLER_0_13_729
*3112 FILLER_0_13_741
*3113 FILLER_0_13_753
*3114 FILLER_0_13_765
*3115 FILLER_0_13_777
*3116 FILLER_0_13_81
*3117 FILLER_0_13_93
*3118 FILLER_0_14_109
*3119 FILLER_0_14_121
*3120 FILLER_0_14_133
*3121 FILLER_0_14_139
*3122 FILLER_0_14_141
*3123 FILLER_0_14_15
*3124 FILLER_0_14_153
*3125 FILLER_0_14_165
*3126 FILLER_0_14_177
*3127 FILLER_0_14_189
*3128 FILLER_0_14_195
*3129 FILLER_0_14_197
*3130 FILLER_0_14_209
*3131 FILLER_0_14_221
*3132 FILLER_0_14_233
*3133 FILLER_0_14_245
*3134 FILLER_0_14_251
*3135 FILLER_0_14_253
*3136 FILLER_0_14_265
*3137 FILLER_0_14_27
*3138 FILLER_0_14_277
*3139 FILLER_0_14_289
*3140 FILLER_0_14_29
*3141 FILLER_0_14_3
*3142 FILLER_0_14_301
*3143 FILLER_0_14_307
*3144 FILLER_0_14_309
*3145 FILLER_0_14_321
*3146 FILLER_0_14_333
*3147 FILLER_0_14_345
*3148 FILLER_0_14_357
*3149 FILLER_0_14_363
*3150 FILLER_0_14_365
*3151 FILLER_0_14_377
*3152 FILLER_0_14_389
*3153 FILLER_0_14_401
*3154 FILLER_0_14_41
*3155 FILLER_0_14_413
*3156 FILLER_0_14_419
*3157 FILLER_0_14_421
*3158 FILLER_0_14_433
*3159 FILLER_0_14_445
*3160 FILLER_0_14_457
*3161 FILLER_0_14_469
*3162 FILLER_0_14_475
*3163 FILLER_0_14_477
*3164 FILLER_0_14_489
*3165 FILLER_0_14_501
*3166 FILLER_0_14_513
*3167 FILLER_0_14_525
*3168 FILLER_0_14_53
*3169 FILLER_0_14_531
*3170 FILLER_0_14_533
*3171 FILLER_0_14_545
*3172 FILLER_0_14_557
*3173 FILLER_0_14_569
*3174 FILLER_0_14_581
*3175 FILLER_0_14_587
*3176 FILLER_0_14_589
*3177 FILLER_0_14_601
*3178 FILLER_0_14_613
*3179 FILLER_0_14_625
*3180 FILLER_0_14_637
*3181 FILLER_0_14_643
*3182 FILLER_0_14_645
*3183 FILLER_0_14_65
*3184 FILLER_0_14_657
*3185 FILLER_0_14_669
*3186 FILLER_0_14_681
*3187 FILLER_0_14_693
*3188 FILLER_0_14_699
*3189 FILLER_0_14_701
*3190 FILLER_0_14_713
*3191 FILLER_0_14_725
*3192 FILLER_0_14_737
*3193 FILLER_0_14_749
*3194 FILLER_0_14_755
*3195 FILLER_0_14_757
*3196 FILLER_0_14_769
*3197 FILLER_0_14_77
*3198 FILLER_0_14_777
*3199 FILLER_0_14_83
*3200 FILLER_0_14_85
*3201 FILLER_0_14_97
*3202 FILLER_0_15_105
*3203 FILLER_0_15_111
*3204 FILLER_0_15_113
*3205 FILLER_0_15_125
*3206 FILLER_0_15_137
*3207 FILLER_0_15_149
*3208 FILLER_0_15_15
*3209 FILLER_0_15_161
*3210 FILLER_0_15_167
*3211 FILLER_0_15_169
*3212 FILLER_0_15_181
*3213 FILLER_0_15_193
*3214 FILLER_0_15_205
*3215 FILLER_0_15_217
*3216 FILLER_0_15_223
*3217 FILLER_0_15_225
*3218 FILLER_0_15_237
*3219 FILLER_0_15_249
*3220 FILLER_0_15_261
*3221 FILLER_0_15_27
*3222 FILLER_0_15_273
*3223 FILLER_0_15_279
*3224 FILLER_0_15_281
*3225 FILLER_0_15_293
*3226 FILLER_0_15_3
*3227 FILLER_0_15_305
*3228 FILLER_0_15_317
*3229 FILLER_0_15_329
*3230 FILLER_0_15_335
*3231 FILLER_0_15_337
*3232 FILLER_0_15_349
*3233 FILLER_0_15_361
*3234 FILLER_0_15_373
*3235 FILLER_0_15_385
*3236 FILLER_0_15_39
*3237 FILLER_0_15_391
*3238 FILLER_0_15_393
*3239 FILLER_0_15_405
*3240 FILLER_0_15_417
*3241 FILLER_0_15_429
*3242 FILLER_0_15_441
*3243 FILLER_0_15_447
*3244 FILLER_0_15_449
*3245 FILLER_0_15_461
*3246 FILLER_0_15_473
*3247 FILLER_0_15_485
*3248 FILLER_0_15_497
*3249 FILLER_0_15_503
*3250 FILLER_0_15_505
*3251 FILLER_0_15_51
*3252 FILLER_0_15_517
*3253 FILLER_0_15_529
*3254 FILLER_0_15_541
*3255 FILLER_0_15_55
*3256 FILLER_0_15_553
*3257 FILLER_0_15_559
*3258 FILLER_0_15_561
*3259 FILLER_0_15_57
*3260 FILLER_0_15_573
*3261 FILLER_0_15_585
*3262 FILLER_0_15_597
*3263 FILLER_0_15_609
*3264 FILLER_0_15_615
*3265 FILLER_0_15_617
*3266 FILLER_0_15_629
*3267 FILLER_0_15_641
*3268 FILLER_0_15_653
*3269 FILLER_0_15_665
*3270 FILLER_0_15_671
*3271 FILLER_0_15_673
*3272 FILLER_0_15_685
*3273 FILLER_0_15_69
*3274 FILLER_0_15_697
*3275 FILLER_0_15_709
*3276 FILLER_0_15_721
*3277 FILLER_0_15_727
*3278 FILLER_0_15_729
*3279 FILLER_0_15_741
*3280 FILLER_0_15_753
*3281 FILLER_0_15_765
*3282 FILLER_0_15_777
*3283 FILLER_0_15_81
*3284 FILLER_0_15_93
*3285 FILLER_0_16_109
*3286 FILLER_0_16_121
*3287 FILLER_0_16_133
*3288 FILLER_0_16_139
*3289 FILLER_0_16_141
*3290 FILLER_0_16_15
*3291 FILLER_0_16_153
*3292 FILLER_0_16_165
*3293 FILLER_0_16_177
*3294 FILLER_0_16_189
*3295 FILLER_0_16_195
*3296 FILLER_0_16_197
*3297 FILLER_0_16_209
*3298 FILLER_0_16_221
*3299 FILLER_0_16_233
*3300 FILLER_0_16_245
*3301 FILLER_0_16_251
*3302 FILLER_0_16_253
*3303 FILLER_0_16_265
*3304 FILLER_0_16_27
*3305 FILLER_0_16_277
*3306 FILLER_0_16_289
*3307 FILLER_0_16_29
*3308 FILLER_0_16_3
*3309 FILLER_0_16_301
*3310 FILLER_0_16_307
*3311 FILLER_0_16_309
*3312 FILLER_0_16_321
*3313 FILLER_0_16_333
*3314 FILLER_0_16_345
*3315 FILLER_0_16_357
*3316 FILLER_0_16_363
*3317 FILLER_0_16_365
*3318 FILLER_0_16_377
*3319 FILLER_0_16_389
*3320 FILLER_0_16_401
*3321 FILLER_0_16_41
*3322 FILLER_0_16_413
*3323 FILLER_0_16_419
*3324 FILLER_0_16_421
*3325 FILLER_0_16_433
*3326 FILLER_0_16_445
*3327 FILLER_0_16_457
*3328 FILLER_0_16_469
*3329 FILLER_0_16_475
*3330 FILLER_0_16_477
*3331 FILLER_0_16_489
*3332 FILLER_0_16_501
*3333 FILLER_0_16_513
*3334 FILLER_0_16_525
*3335 FILLER_0_16_53
*3336 FILLER_0_16_531
*3337 FILLER_0_16_533
*3338 FILLER_0_16_545
*3339 FILLER_0_16_557
*3340 FILLER_0_16_569
*3341 FILLER_0_16_581
*3342 FILLER_0_16_587
*3343 FILLER_0_16_589
*3344 FILLER_0_16_601
*3345 FILLER_0_16_613
*3346 FILLER_0_16_625
*3347 FILLER_0_16_637
*3348 FILLER_0_16_643
*3349 FILLER_0_16_645
*3350 FILLER_0_16_65
*3351 FILLER_0_16_657
*3352 FILLER_0_16_669
*3353 FILLER_0_16_681
*3354 FILLER_0_16_693
*3355 FILLER_0_16_699
*3356 FILLER_0_16_701
*3357 FILLER_0_16_713
*3358 FILLER_0_16_725
*3359 FILLER_0_16_737
*3360 FILLER_0_16_749
*3361 FILLER_0_16_755
*3362 FILLER_0_16_757
*3363 FILLER_0_16_769
*3364 FILLER_0_16_77
*3365 FILLER_0_16_777
*3366 FILLER_0_16_83
*3367 FILLER_0_16_85
*3368 FILLER_0_16_97
*3369 FILLER_0_17_105
*3370 FILLER_0_17_111
*3371 FILLER_0_17_113
*3372 FILLER_0_17_125
*3373 FILLER_0_17_137
*3374 FILLER_0_17_149
*3375 FILLER_0_17_15
*3376 FILLER_0_17_161
*3377 FILLER_0_17_167
*3378 FILLER_0_17_169
*3379 FILLER_0_17_181
*3380 FILLER_0_17_193
*3381 FILLER_0_17_205
*3382 FILLER_0_17_217
*3383 FILLER_0_17_223
*3384 FILLER_0_17_225
*3385 FILLER_0_17_237
*3386 FILLER_0_17_249
*3387 FILLER_0_17_261
*3388 FILLER_0_17_27
*3389 FILLER_0_17_273
*3390 FILLER_0_17_279
*3391 FILLER_0_17_281
*3392 FILLER_0_17_293
*3393 FILLER_0_17_3
*3394 FILLER_0_17_305
*3395 FILLER_0_17_317
*3396 FILLER_0_17_329
*3397 FILLER_0_17_335
*3398 FILLER_0_17_337
*3399 FILLER_0_17_349
*3400 FILLER_0_17_361
*3401 FILLER_0_17_373
*3402 FILLER_0_17_385
*3403 FILLER_0_17_39
*3404 FILLER_0_17_391
*3405 FILLER_0_17_393
*3406 FILLER_0_17_405
*3407 FILLER_0_17_417
*3408 FILLER_0_17_429
*3409 FILLER_0_17_441
*3410 FILLER_0_17_447
*3411 FILLER_0_17_449
*3412 FILLER_0_17_461
*3413 FILLER_0_17_473
*3414 FILLER_0_17_485
*3415 FILLER_0_17_497
*3416 FILLER_0_17_503
*3417 FILLER_0_17_505
*3418 FILLER_0_17_51
*3419 FILLER_0_17_517
*3420 FILLER_0_17_529
*3421 FILLER_0_17_541
*3422 FILLER_0_17_55
*3423 FILLER_0_17_553
*3424 FILLER_0_17_559
*3425 FILLER_0_17_561
*3426 FILLER_0_17_57
*3427 FILLER_0_17_573
*3428 FILLER_0_17_585
*3429 FILLER_0_17_597
*3430 FILLER_0_17_609
*3431 FILLER_0_17_615
*3432 FILLER_0_17_617
*3433 FILLER_0_17_629
*3434 FILLER_0_17_641
*3435 FILLER_0_17_653
*3436 FILLER_0_17_665
*3437 FILLER_0_17_671
*3438 FILLER_0_17_673
*3439 FILLER_0_17_685
*3440 FILLER_0_17_69
*3441 FILLER_0_17_697
*3442 FILLER_0_17_709
*3443 FILLER_0_17_721
*3444 FILLER_0_17_727
*3445 FILLER_0_17_729
*3446 FILLER_0_17_741
*3447 FILLER_0_17_753
*3448 FILLER_0_17_765
*3449 FILLER_0_17_777
*3450 FILLER_0_17_81
*3451 FILLER_0_17_93
*3452 FILLER_0_18_109
*3453 FILLER_0_18_121
*3454 FILLER_0_18_133
*3455 FILLER_0_18_139
*3456 FILLER_0_18_141
*3457 FILLER_0_18_15
*3458 FILLER_0_18_153
*3459 FILLER_0_18_165
*3460 FILLER_0_18_177
*3461 FILLER_0_18_189
*3462 FILLER_0_18_195
*3463 FILLER_0_18_197
*3464 FILLER_0_18_209
*3465 FILLER_0_18_221
*3466 FILLER_0_18_233
*3467 FILLER_0_18_245
*3468 FILLER_0_18_251
*3469 FILLER_0_18_253
*3470 FILLER_0_18_265
*3471 FILLER_0_18_27
*3472 FILLER_0_18_277
*3473 FILLER_0_18_289
*3474 FILLER_0_18_29
*3475 FILLER_0_18_3
*3476 FILLER_0_18_301
*3477 FILLER_0_18_307
*3478 FILLER_0_18_309
*3479 FILLER_0_18_321
*3480 FILLER_0_18_333
*3481 FILLER_0_18_345
*3482 FILLER_0_18_357
*3483 FILLER_0_18_363
*3484 FILLER_0_18_365
*3485 FILLER_0_18_377
*3486 FILLER_0_18_389
*3487 FILLER_0_18_401
*3488 FILLER_0_18_41
*3489 FILLER_0_18_413
*3490 FILLER_0_18_419
*3491 FILLER_0_18_421
*3492 FILLER_0_18_433
*3493 FILLER_0_18_445
*3494 FILLER_0_18_457
*3495 FILLER_0_18_469
*3496 FILLER_0_18_475
*3497 FILLER_0_18_477
*3498 FILLER_0_18_489
*3499 FILLER_0_18_501
*3500 FILLER_0_18_513
*3501 FILLER_0_18_525
*3502 FILLER_0_18_53
*3503 FILLER_0_18_531
*3504 FILLER_0_18_533
*3505 FILLER_0_18_545
*3506 FILLER_0_18_557
*3507 FILLER_0_18_569
*3508 FILLER_0_18_581
*3509 FILLER_0_18_587
*3510 FILLER_0_18_589
*3511 FILLER_0_18_601
*3512 FILLER_0_18_613
*3513 FILLER_0_18_625
*3514 FILLER_0_18_637
*3515 FILLER_0_18_643
*3516 FILLER_0_18_645
*3517 FILLER_0_18_65
*3518 FILLER_0_18_657
*3519 FILLER_0_18_669
*3520 FILLER_0_18_681
*3521 FILLER_0_18_693
*3522 FILLER_0_18_699
*3523 FILLER_0_18_701
*3524 FILLER_0_18_713
*3525 FILLER_0_18_725
*3526 FILLER_0_18_737
*3527 FILLER_0_18_749
*3528 FILLER_0_18_755
*3529 FILLER_0_18_757
*3530 FILLER_0_18_769
*3531 FILLER_0_18_77
*3532 FILLER_0_18_777
*3533 FILLER_0_18_83
*3534 FILLER_0_18_85
*3535 FILLER_0_18_97
*3536 FILLER_0_19_105
*3537 FILLER_0_19_111
*3538 FILLER_0_19_113
*3539 FILLER_0_19_125
*3540 FILLER_0_19_137
*3541 FILLER_0_19_149
*3542 FILLER_0_19_15
*3543 FILLER_0_19_161
*3544 FILLER_0_19_167
*3545 FILLER_0_19_169
*3546 FILLER_0_19_181
*3547 FILLER_0_19_193
*3548 FILLER_0_19_205
*3549 FILLER_0_19_217
*3550 FILLER_0_19_223
*3551 FILLER_0_19_225
*3552 FILLER_0_19_237
*3553 FILLER_0_19_249
*3554 FILLER_0_19_261
*3555 FILLER_0_19_27
*3556 FILLER_0_19_273
*3557 FILLER_0_19_279
*3558 FILLER_0_19_281
*3559 FILLER_0_19_293
*3560 FILLER_0_19_3
*3561 FILLER_0_19_305
*3562 FILLER_0_19_317
*3563 FILLER_0_19_329
*3564 FILLER_0_19_335
*3565 FILLER_0_19_337
*3566 FILLER_0_19_349
*3567 FILLER_0_19_361
*3568 FILLER_0_19_373
*3569 FILLER_0_19_385
*3570 FILLER_0_19_39
*3571 FILLER_0_19_391
*3572 FILLER_0_19_393
*3573 FILLER_0_19_405
*3574 FILLER_0_19_417
*3575 FILLER_0_19_429
*3576 FILLER_0_19_441
*3577 FILLER_0_19_447
*3578 FILLER_0_19_449
*3579 FILLER_0_19_461
*3580 FILLER_0_19_473
*3581 FILLER_0_19_485
*3582 FILLER_0_19_497
*3583 FILLER_0_19_503
*3584 FILLER_0_19_505
*3585 FILLER_0_19_51
*3586 FILLER_0_19_517
*3587 FILLER_0_19_529
*3588 FILLER_0_19_541
*3589 FILLER_0_19_55
*3590 FILLER_0_19_553
*3591 FILLER_0_19_559
*3592 FILLER_0_19_561
*3593 FILLER_0_19_57
*3594 FILLER_0_19_573
*3595 FILLER_0_19_585
*3596 FILLER_0_19_597
*3597 FILLER_0_19_609
*3598 FILLER_0_19_615
*3599 FILLER_0_19_617
*3600 FILLER_0_19_629
*3601 FILLER_0_19_641
*3602 FILLER_0_19_653
*3603 FILLER_0_19_665
*3604 FILLER_0_19_671
*3605 FILLER_0_19_673
*3606 FILLER_0_19_685
*3607 FILLER_0_19_69
*3608 FILLER_0_19_697
*3609 FILLER_0_19_709
*3610 FILLER_0_19_721
*3611 FILLER_0_19_727
*3612 FILLER_0_19_729
*3613 FILLER_0_19_741
*3614 FILLER_0_19_753
*3615 FILLER_0_19_765
*3616 FILLER_0_19_777
*3617 FILLER_0_19_81
*3618 FILLER_0_19_93
*3619 FILLER_0_1_105
*3620 FILLER_0_1_111
*3621 FILLER_0_1_113
*3622 FILLER_0_1_125
*3623 FILLER_0_1_137
*3624 FILLER_0_1_149
*3625 FILLER_0_1_15
*3626 FILLER_0_1_161
*3627 FILLER_0_1_167
*3628 FILLER_0_1_169
*3629 FILLER_0_1_181
*3630 FILLER_0_1_193
*3631 FILLER_0_1_201
*3632 FILLER_0_1_206
*3633 FILLER_0_1_218
*3634 FILLER_0_1_225
*3635 FILLER_0_1_237
*3636 FILLER_0_1_249
*3637 FILLER_0_1_261
*3638 FILLER_0_1_27
*3639 FILLER_0_1_273
*3640 FILLER_0_1_279
*3641 FILLER_0_1_281
*3642 FILLER_0_1_293
*3643 FILLER_0_1_3
*3644 FILLER_0_1_305
*3645 FILLER_0_1_317
*3646 FILLER_0_1_329
*3647 FILLER_0_1_335
*3648 FILLER_0_1_337
*3649 FILLER_0_1_349
*3650 FILLER_0_1_361
*3651 FILLER_0_1_373
*3652 FILLER_0_1_385
*3653 FILLER_0_1_39
*3654 FILLER_0_1_391
*3655 FILLER_0_1_393
*3656 FILLER_0_1_405
*3657 FILLER_0_1_417
*3658 FILLER_0_1_429
*3659 FILLER_0_1_441
*3660 FILLER_0_1_447
*3661 FILLER_0_1_449
*3662 FILLER_0_1_461
*3663 FILLER_0_1_473
*3664 FILLER_0_1_485
*3665 FILLER_0_1_497
*3666 FILLER_0_1_503
*3667 FILLER_0_1_505
*3668 FILLER_0_1_51
*3669 FILLER_0_1_517
*3670 FILLER_0_1_529
*3671 FILLER_0_1_541
*3672 FILLER_0_1_55
*3673 FILLER_0_1_553
*3674 FILLER_0_1_559
*3675 FILLER_0_1_561
*3676 FILLER_0_1_57
*3677 FILLER_0_1_573
*3678 FILLER_0_1_585
*3679 FILLER_0_1_597
*3680 FILLER_0_1_609
*3681 FILLER_0_1_615
*3682 FILLER_0_1_617
*3683 FILLER_0_1_629
*3684 FILLER_0_1_641
*3685 FILLER_0_1_653
*3686 FILLER_0_1_665
*3687 FILLER_0_1_671
*3688 FILLER_0_1_673
*3689 FILLER_0_1_685
*3690 FILLER_0_1_69
*3691 FILLER_0_1_697
*3692 FILLER_0_1_709
*3693 FILLER_0_1_721
*3694 FILLER_0_1_727
*3695 FILLER_0_1_729
*3696 FILLER_0_1_741
*3697 FILLER_0_1_753
*3698 FILLER_0_1_765
*3699 FILLER_0_1_777
*3700 FILLER_0_1_81
*3701 FILLER_0_1_93
*3702 FILLER_0_20_109
*3703 FILLER_0_20_121
*3704 FILLER_0_20_133
*3705 FILLER_0_20_139
*3706 FILLER_0_20_141
*3707 FILLER_0_20_15
*3708 FILLER_0_20_153
*3709 FILLER_0_20_165
*3710 FILLER_0_20_177
*3711 FILLER_0_20_189
*3712 FILLER_0_20_195
*3713 FILLER_0_20_197
*3714 FILLER_0_20_209
*3715 FILLER_0_20_221
*3716 FILLER_0_20_233
*3717 FILLER_0_20_245
*3718 FILLER_0_20_251
*3719 FILLER_0_20_253
*3720 FILLER_0_20_265
*3721 FILLER_0_20_27
*3722 FILLER_0_20_277
*3723 FILLER_0_20_289
*3724 FILLER_0_20_29
*3725 FILLER_0_20_3
*3726 FILLER_0_20_301
*3727 FILLER_0_20_307
*3728 FILLER_0_20_309
*3729 FILLER_0_20_321
*3730 FILLER_0_20_333
*3731 FILLER_0_20_345
*3732 FILLER_0_20_357
*3733 FILLER_0_20_363
*3734 FILLER_0_20_365
*3735 FILLER_0_20_377
*3736 FILLER_0_20_389
*3737 FILLER_0_20_401
*3738 FILLER_0_20_41
*3739 FILLER_0_20_413
*3740 FILLER_0_20_419
*3741 FILLER_0_20_421
*3742 FILLER_0_20_433
*3743 FILLER_0_20_445
*3744 FILLER_0_20_457
*3745 FILLER_0_20_469
*3746 FILLER_0_20_475
*3747 FILLER_0_20_477
*3748 FILLER_0_20_489
*3749 FILLER_0_20_501
*3750 FILLER_0_20_513
*3751 FILLER_0_20_525
*3752 FILLER_0_20_53
*3753 FILLER_0_20_531
*3754 FILLER_0_20_533
*3755 FILLER_0_20_545
*3756 FILLER_0_20_557
*3757 FILLER_0_20_569
*3758 FILLER_0_20_581
*3759 FILLER_0_20_587
*3760 FILLER_0_20_589
*3761 FILLER_0_20_601
*3762 FILLER_0_20_613
*3763 FILLER_0_20_625
*3764 FILLER_0_20_637
*3765 FILLER_0_20_643
*3766 FILLER_0_20_645
*3767 FILLER_0_20_65
*3768 FILLER_0_20_657
*3769 FILLER_0_20_669
*3770 FILLER_0_20_681
*3771 FILLER_0_20_693
*3772 FILLER_0_20_699
*3773 FILLER_0_20_701
*3774 FILLER_0_20_713
*3775 FILLER_0_20_725
*3776 FILLER_0_20_737
*3777 FILLER_0_20_749
*3778 FILLER_0_20_755
*3779 FILLER_0_20_757
*3780 FILLER_0_20_769
*3781 FILLER_0_20_77
*3782 FILLER_0_20_777
*3783 FILLER_0_20_83
*3784 FILLER_0_20_85
*3785 FILLER_0_20_97
*3786 FILLER_0_21_105
*3787 FILLER_0_21_111
*3788 FILLER_0_21_113
*3789 FILLER_0_21_125
*3790 FILLER_0_21_137
*3791 FILLER_0_21_149
*3792 FILLER_0_21_15
*3793 FILLER_0_21_161
*3794 FILLER_0_21_167
*3795 FILLER_0_21_169
*3796 FILLER_0_21_181
*3797 FILLER_0_21_193
*3798 FILLER_0_21_205
*3799 FILLER_0_21_217
*3800 FILLER_0_21_223
*3801 FILLER_0_21_225
*3802 FILLER_0_21_237
*3803 FILLER_0_21_249
*3804 FILLER_0_21_261
*3805 FILLER_0_21_27
*3806 FILLER_0_21_273
*3807 FILLER_0_21_279
*3808 FILLER_0_21_281
*3809 FILLER_0_21_293
*3810 FILLER_0_21_3
*3811 FILLER_0_21_305
*3812 FILLER_0_21_317
*3813 FILLER_0_21_329
*3814 FILLER_0_21_335
*3815 FILLER_0_21_337
*3816 FILLER_0_21_349
*3817 FILLER_0_21_361
*3818 FILLER_0_21_373
*3819 FILLER_0_21_385
*3820 FILLER_0_21_39
*3821 FILLER_0_21_391
*3822 FILLER_0_21_393
*3823 FILLER_0_21_405
*3824 FILLER_0_21_417
*3825 FILLER_0_21_429
*3826 FILLER_0_21_441
*3827 FILLER_0_21_447
*3828 FILLER_0_21_449
*3829 FILLER_0_21_461
*3830 FILLER_0_21_473
*3831 FILLER_0_21_485
*3832 FILLER_0_21_497
*3833 FILLER_0_21_503
*3834 FILLER_0_21_505
*3835 FILLER_0_21_51
*3836 FILLER_0_21_517
*3837 FILLER_0_21_529
*3838 FILLER_0_21_541
*3839 FILLER_0_21_55
*3840 FILLER_0_21_553
*3841 FILLER_0_21_559
*3842 FILLER_0_21_561
*3843 FILLER_0_21_57
*3844 FILLER_0_21_573
*3845 FILLER_0_21_585
*3846 FILLER_0_21_597
*3847 FILLER_0_21_609
*3848 FILLER_0_21_615
*3849 FILLER_0_21_617
*3850 FILLER_0_21_629
*3851 FILLER_0_21_641
*3852 FILLER_0_21_653
*3853 FILLER_0_21_665
*3854 FILLER_0_21_671
*3855 FILLER_0_21_673
*3856 FILLER_0_21_685
*3857 FILLER_0_21_69
*3858 FILLER_0_21_697
*3859 FILLER_0_21_709
*3860 FILLER_0_21_721
*3861 FILLER_0_21_727
*3862 FILLER_0_21_729
*3863 FILLER_0_21_741
*3864 FILLER_0_21_753
*3865 FILLER_0_21_765
*3866 FILLER_0_21_777
*3867 FILLER_0_21_81
*3868 FILLER_0_21_93
*3869 FILLER_0_22_109
*3870 FILLER_0_22_121
*3871 FILLER_0_22_133
*3872 FILLER_0_22_139
*3873 FILLER_0_22_141
*3874 FILLER_0_22_15
*3875 FILLER_0_22_153
*3876 FILLER_0_22_165
*3877 FILLER_0_22_177
*3878 FILLER_0_22_189
*3879 FILLER_0_22_195
*3880 FILLER_0_22_197
*3881 FILLER_0_22_209
*3882 FILLER_0_22_221
*3883 FILLER_0_22_233
*3884 FILLER_0_22_245
*3885 FILLER_0_22_251
*3886 FILLER_0_22_253
*3887 FILLER_0_22_265
*3888 FILLER_0_22_27
*3889 FILLER_0_22_277
*3890 FILLER_0_22_289
*3891 FILLER_0_22_29
*3892 FILLER_0_22_3
*3893 FILLER_0_22_301
*3894 FILLER_0_22_307
*3895 FILLER_0_22_309
*3896 FILLER_0_22_321
*3897 FILLER_0_22_333
*3898 FILLER_0_22_345
*3899 FILLER_0_22_357
*3900 FILLER_0_22_363
*3901 FILLER_0_22_365
*3902 FILLER_0_22_377
*3903 FILLER_0_22_389
*3904 FILLER_0_22_401
*3905 FILLER_0_22_41
*3906 FILLER_0_22_413
*3907 FILLER_0_22_419
*3908 FILLER_0_22_421
*3909 FILLER_0_22_433
*3910 FILLER_0_22_445
*3911 FILLER_0_22_457
*3912 FILLER_0_22_469
*3913 FILLER_0_22_475
*3914 FILLER_0_22_477
*3915 FILLER_0_22_489
*3916 FILLER_0_22_501
*3917 FILLER_0_22_513
*3918 FILLER_0_22_525
*3919 FILLER_0_22_53
*3920 FILLER_0_22_531
*3921 FILLER_0_22_533
*3922 FILLER_0_22_545
*3923 FILLER_0_22_557
*3924 FILLER_0_22_569
*3925 FILLER_0_22_581
*3926 FILLER_0_22_587
*3927 FILLER_0_22_589
*3928 FILLER_0_22_601
*3929 FILLER_0_22_613
*3930 FILLER_0_22_625
*3931 FILLER_0_22_637
*3932 FILLER_0_22_643
*3933 FILLER_0_22_645
*3934 FILLER_0_22_65
*3935 FILLER_0_22_657
*3936 FILLER_0_22_669
*3937 FILLER_0_22_681
*3938 FILLER_0_22_693
*3939 FILLER_0_22_699
*3940 FILLER_0_22_701
*3941 FILLER_0_22_713
*3942 FILLER_0_22_725
*3943 FILLER_0_22_737
*3944 FILLER_0_22_749
*3945 FILLER_0_22_755
*3946 FILLER_0_22_757
*3947 FILLER_0_22_769
*3948 FILLER_0_22_77
*3949 FILLER_0_22_777
*3950 FILLER_0_22_83
*3951 FILLER_0_22_85
*3952 FILLER_0_22_97
*3953 FILLER_0_23_105
*3954 FILLER_0_23_111
*3955 FILLER_0_23_113
*3956 FILLER_0_23_125
*3957 FILLER_0_23_137
*3958 FILLER_0_23_149
*3959 FILLER_0_23_15
*3960 FILLER_0_23_161
*3961 FILLER_0_23_167
*3962 FILLER_0_23_169
*3963 FILLER_0_23_181
*3964 FILLER_0_23_193
*3965 FILLER_0_23_205
*3966 FILLER_0_23_217
*3967 FILLER_0_23_223
*3968 FILLER_0_23_225
*3969 FILLER_0_23_237
*3970 FILLER_0_23_249
*3971 FILLER_0_23_261
*3972 FILLER_0_23_27
*3973 FILLER_0_23_273
*3974 FILLER_0_23_279
*3975 FILLER_0_23_281
*3976 FILLER_0_23_293
*3977 FILLER_0_23_3
*3978 FILLER_0_23_305
*3979 FILLER_0_23_317
*3980 FILLER_0_23_329
*3981 FILLER_0_23_335
*3982 FILLER_0_23_337
*3983 FILLER_0_23_349
*3984 FILLER_0_23_361
*3985 FILLER_0_23_373
*3986 FILLER_0_23_385
*3987 FILLER_0_23_39
*3988 FILLER_0_23_391
*3989 FILLER_0_23_393
*3990 FILLER_0_23_405
*3991 FILLER_0_23_417
*3992 FILLER_0_23_429
*3993 FILLER_0_23_441
*3994 FILLER_0_23_447
*3995 FILLER_0_23_449
*3996 FILLER_0_23_461
*3997 FILLER_0_23_473
*3998 FILLER_0_23_485
*3999 FILLER_0_23_497
*4000 FILLER_0_23_503
*4001 FILLER_0_23_505
*4002 FILLER_0_23_51
*4003 FILLER_0_23_517
*4004 FILLER_0_23_529
*4005 FILLER_0_23_541
*4006 FILLER_0_23_55
*4007 FILLER_0_23_553
*4008 FILLER_0_23_559
*4009 FILLER_0_23_561
*4010 FILLER_0_23_57
*4011 FILLER_0_23_573
*4012 FILLER_0_23_585
*4013 FILLER_0_23_597
*4014 FILLER_0_23_609
*4015 FILLER_0_23_615
*4016 FILLER_0_23_617
*4017 FILLER_0_23_629
*4018 FILLER_0_23_641
*4019 FILLER_0_23_653
*4020 FILLER_0_23_665
*4021 FILLER_0_23_671
*4022 FILLER_0_23_673
*4023 FILLER_0_23_685
*4024 FILLER_0_23_69
*4025 FILLER_0_23_697
*4026 FILLER_0_23_709
*4027 FILLER_0_23_721
*4028 FILLER_0_23_727
*4029 FILLER_0_23_729
*4030 FILLER_0_23_741
*4031 FILLER_0_23_753
*4032 FILLER_0_23_765
*4033 FILLER_0_23_777
*4034 FILLER_0_23_81
*4035 FILLER_0_23_93
*4036 FILLER_0_24_109
*4037 FILLER_0_24_121
*4038 FILLER_0_24_133
*4039 FILLER_0_24_139
*4040 FILLER_0_24_141
*4041 FILLER_0_24_15
*4042 FILLER_0_24_153
*4043 FILLER_0_24_165
*4044 FILLER_0_24_177
*4045 FILLER_0_24_189
*4046 FILLER_0_24_195
*4047 FILLER_0_24_197
*4048 FILLER_0_24_209
*4049 FILLER_0_24_221
*4050 FILLER_0_24_233
*4051 FILLER_0_24_245
*4052 FILLER_0_24_251
*4053 FILLER_0_24_253
*4054 FILLER_0_24_265
*4055 FILLER_0_24_27
*4056 FILLER_0_24_277
*4057 FILLER_0_24_289
*4058 FILLER_0_24_29
*4059 FILLER_0_24_3
*4060 FILLER_0_24_301
*4061 FILLER_0_24_307
*4062 FILLER_0_24_309
*4063 FILLER_0_24_321
*4064 FILLER_0_24_333
*4065 FILLER_0_24_345
*4066 FILLER_0_24_357
*4067 FILLER_0_24_363
*4068 FILLER_0_24_365
*4069 FILLER_0_24_377
*4070 FILLER_0_24_389
*4071 FILLER_0_24_401
*4072 FILLER_0_24_41
*4073 FILLER_0_24_413
*4074 FILLER_0_24_419
*4075 FILLER_0_24_421
*4076 FILLER_0_24_433
*4077 FILLER_0_24_445
*4078 FILLER_0_24_457
*4079 FILLER_0_24_469
*4080 FILLER_0_24_475
*4081 FILLER_0_24_477
*4082 FILLER_0_24_489
*4083 FILLER_0_24_501
*4084 FILLER_0_24_513
*4085 FILLER_0_24_525
*4086 FILLER_0_24_53
*4087 FILLER_0_24_531
*4088 FILLER_0_24_533
*4089 FILLER_0_24_545
*4090 FILLER_0_24_557
*4091 FILLER_0_24_569
*4092 FILLER_0_24_581
*4093 FILLER_0_24_587
*4094 FILLER_0_24_589
*4095 FILLER_0_24_601
*4096 FILLER_0_24_613
*4097 FILLER_0_24_625
*4098 FILLER_0_24_637
*4099 FILLER_0_24_643
*4100 FILLER_0_24_645
*4101 FILLER_0_24_65
*4102 FILLER_0_24_657
*4103 FILLER_0_24_669
*4104 FILLER_0_24_681
*4105 FILLER_0_24_693
*4106 FILLER_0_24_699
*4107 FILLER_0_24_701
*4108 FILLER_0_24_713
*4109 FILLER_0_24_725
*4110 FILLER_0_24_737
*4111 FILLER_0_24_749
*4112 FILLER_0_24_755
*4113 FILLER_0_24_757
*4114 FILLER_0_24_769
*4115 FILLER_0_24_77
*4116 FILLER_0_24_777
*4117 FILLER_0_24_83
*4118 FILLER_0_24_85
*4119 FILLER_0_24_97
*4120 FILLER_0_25_105
*4121 FILLER_0_25_111
*4122 FILLER_0_25_113
*4123 FILLER_0_25_125
*4124 FILLER_0_25_137
*4125 FILLER_0_25_149
*4126 FILLER_0_25_15
*4127 FILLER_0_25_161
*4128 FILLER_0_25_167
*4129 FILLER_0_25_169
*4130 FILLER_0_25_181
*4131 FILLER_0_25_193
*4132 FILLER_0_25_205
*4133 FILLER_0_25_217
*4134 FILLER_0_25_223
*4135 FILLER_0_25_225
*4136 FILLER_0_25_237
*4137 FILLER_0_25_249
*4138 FILLER_0_25_261
*4139 FILLER_0_25_27
*4140 FILLER_0_25_273
*4141 FILLER_0_25_279
*4142 FILLER_0_25_281
*4143 FILLER_0_25_293
*4144 FILLER_0_25_3
*4145 FILLER_0_25_305
*4146 FILLER_0_25_317
*4147 FILLER_0_25_329
*4148 FILLER_0_25_335
*4149 FILLER_0_25_337
*4150 FILLER_0_25_349
*4151 FILLER_0_25_361
*4152 FILLER_0_25_373
*4153 FILLER_0_25_385
*4154 FILLER_0_25_39
*4155 FILLER_0_25_391
*4156 FILLER_0_25_393
*4157 FILLER_0_25_405
*4158 FILLER_0_25_417
*4159 FILLER_0_25_429
*4160 FILLER_0_25_441
*4161 FILLER_0_25_447
*4162 FILLER_0_25_449
*4163 FILLER_0_25_461
*4164 FILLER_0_25_473
*4165 FILLER_0_25_485
*4166 FILLER_0_25_497
*4167 FILLER_0_25_503
*4168 FILLER_0_25_505
*4169 FILLER_0_25_51
*4170 FILLER_0_25_517
*4171 FILLER_0_25_529
*4172 FILLER_0_25_541
*4173 FILLER_0_25_55
*4174 FILLER_0_25_553
*4175 FILLER_0_25_559
*4176 FILLER_0_25_561
*4177 FILLER_0_25_57
*4178 FILLER_0_25_573
*4179 FILLER_0_25_585
*4180 FILLER_0_25_597
*4181 FILLER_0_25_609
*4182 FILLER_0_25_615
*4183 FILLER_0_25_617
*4184 FILLER_0_25_629
*4185 FILLER_0_25_641
*4186 FILLER_0_25_653
*4187 FILLER_0_25_665
*4188 FILLER_0_25_671
*4189 FILLER_0_25_673
*4190 FILLER_0_25_685
*4191 FILLER_0_25_69
*4192 FILLER_0_25_697
*4193 FILLER_0_25_709
*4194 FILLER_0_25_721
*4195 FILLER_0_25_727
*4196 FILLER_0_25_729
*4197 FILLER_0_25_741
*4198 FILLER_0_25_753
*4199 FILLER_0_25_765
*4200 FILLER_0_25_81
*4201 FILLER_0_25_93
*4202 FILLER_0_26_109
*4203 FILLER_0_26_121
*4204 FILLER_0_26_133
*4205 FILLER_0_26_139
*4206 FILLER_0_26_141
*4207 FILLER_0_26_15
*4208 FILLER_0_26_153
*4209 FILLER_0_26_165
*4210 FILLER_0_26_177
*4211 FILLER_0_26_189
*4212 FILLER_0_26_195
*4213 FILLER_0_26_197
*4214 FILLER_0_26_209
*4215 FILLER_0_26_221
*4216 FILLER_0_26_233
*4217 FILLER_0_26_245
*4218 FILLER_0_26_251
*4219 FILLER_0_26_253
*4220 FILLER_0_26_265
*4221 FILLER_0_26_27
*4222 FILLER_0_26_277
*4223 FILLER_0_26_289
*4224 FILLER_0_26_29
*4225 FILLER_0_26_3
*4226 FILLER_0_26_301
*4227 FILLER_0_26_307
*4228 FILLER_0_26_309
*4229 FILLER_0_26_321
*4230 FILLER_0_26_333
*4231 FILLER_0_26_345
*4232 FILLER_0_26_357
*4233 FILLER_0_26_363
*4234 FILLER_0_26_365
*4235 FILLER_0_26_377
*4236 FILLER_0_26_389
*4237 FILLER_0_26_401
*4238 FILLER_0_26_41
*4239 FILLER_0_26_413
*4240 FILLER_0_26_419
*4241 FILLER_0_26_421
*4242 FILLER_0_26_433
*4243 FILLER_0_26_445
*4244 FILLER_0_26_457
*4245 FILLER_0_26_469
*4246 FILLER_0_26_475
*4247 FILLER_0_26_477
*4248 FILLER_0_26_489
*4249 FILLER_0_26_501
*4250 FILLER_0_26_513
*4251 FILLER_0_26_525
*4252 FILLER_0_26_53
*4253 FILLER_0_26_531
*4254 FILLER_0_26_533
*4255 FILLER_0_26_545
*4256 FILLER_0_26_557
*4257 FILLER_0_26_569
*4258 FILLER_0_26_581
*4259 FILLER_0_26_587
*4260 FILLER_0_26_589
*4261 FILLER_0_26_601
*4262 FILLER_0_26_613
*4263 FILLER_0_26_625
*4264 FILLER_0_26_637
*4265 FILLER_0_26_643
*4266 FILLER_0_26_645
*4267 FILLER_0_26_65
*4268 FILLER_0_26_657
*4269 FILLER_0_26_669
*4270 FILLER_0_26_681
*4271 FILLER_0_26_693
*4272 FILLER_0_26_699
*4273 FILLER_0_26_701
*4274 FILLER_0_26_713
*4275 FILLER_0_26_725
*4276 FILLER_0_26_737
*4277 FILLER_0_26_749
*4278 FILLER_0_26_755
*4279 FILLER_0_26_757
*4280 FILLER_0_26_769
*4281 FILLER_0_26_77
*4282 FILLER_0_26_777
*4283 FILLER_0_26_83
*4284 FILLER_0_26_85
*4285 FILLER_0_26_97
*4286 FILLER_0_27_105
*4287 FILLER_0_27_111
*4288 FILLER_0_27_113
*4289 FILLER_0_27_125
*4290 FILLER_0_27_137
*4291 FILLER_0_27_149
*4292 FILLER_0_27_15
*4293 FILLER_0_27_161
*4294 FILLER_0_27_167
*4295 FILLER_0_27_169
*4296 FILLER_0_27_181
*4297 FILLER_0_27_193
*4298 FILLER_0_27_205
*4299 FILLER_0_27_217
*4300 FILLER_0_27_223
*4301 FILLER_0_27_225
*4302 FILLER_0_27_237
*4303 FILLER_0_27_249
*4304 FILLER_0_27_261
*4305 FILLER_0_27_27
*4306 FILLER_0_27_273
*4307 FILLER_0_27_279
*4308 FILLER_0_27_281
*4309 FILLER_0_27_293
*4310 FILLER_0_27_3
*4311 FILLER_0_27_305
*4312 FILLER_0_27_317
*4313 FILLER_0_27_329
*4314 FILLER_0_27_335
*4315 FILLER_0_27_337
*4316 FILLER_0_27_349
*4317 FILLER_0_27_361
*4318 FILLER_0_27_373
*4319 FILLER_0_27_385
*4320 FILLER_0_27_39
*4321 FILLER_0_27_391
*4322 FILLER_0_27_393
*4323 FILLER_0_27_405
*4324 FILLER_0_27_417
*4325 FILLER_0_27_429
*4326 FILLER_0_27_441
*4327 FILLER_0_27_447
*4328 FILLER_0_27_449
*4329 FILLER_0_27_461
*4330 FILLER_0_27_473
*4331 FILLER_0_27_485
*4332 FILLER_0_27_497
*4333 FILLER_0_27_503
*4334 FILLER_0_27_505
*4335 FILLER_0_27_51
*4336 FILLER_0_27_517
*4337 FILLER_0_27_529
*4338 FILLER_0_27_541
*4339 FILLER_0_27_55
*4340 FILLER_0_27_553
*4341 FILLER_0_27_559
*4342 FILLER_0_27_561
*4343 FILLER_0_27_57
*4344 FILLER_0_27_573
*4345 FILLER_0_27_585
*4346 FILLER_0_27_597
*4347 FILLER_0_27_609
*4348 FILLER_0_27_615
*4349 FILLER_0_27_617
*4350 FILLER_0_27_629
*4351 FILLER_0_27_641
*4352 FILLER_0_27_653
*4353 FILLER_0_27_665
*4354 FILLER_0_27_671
*4355 FILLER_0_27_673
*4356 FILLER_0_27_685
*4357 FILLER_0_27_69
*4358 FILLER_0_27_697
*4359 FILLER_0_27_709
*4360 FILLER_0_27_721
*4361 FILLER_0_27_727
*4362 FILLER_0_27_729
*4363 FILLER_0_27_741
*4364 FILLER_0_27_753
*4365 FILLER_0_27_765
*4366 FILLER_0_27_777
*4367 FILLER_0_27_81
*4368 FILLER_0_27_93
*4369 FILLER_0_28_109
*4370 FILLER_0_28_121
*4371 FILLER_0_28_133
*4372 FILLER_0_28_139
*4373 FILLER_0_28_141
*4374 FILLER_0_28_15
*4375 FILLER_0_28_153
*4376 FILLER_0_28_165
*4377 FILLER_0_28_177
*4378 FILLER_0_28_189
*4379 FILLER_0_28_195
*4380 FILLER_0_28_197
*4381 FILLER_0_28_209
*4382 FILLER_0_28_221
*4383 FILLER_0_28_233
*4384 FILLER_0_28_245
*4385 FILLER_0_28_251
*4386 FILLER_0_28_253
*4387 FILLER_0_28_265
*4388 FILLER_0_28_27
*4389 FILLER_0_28_277
*4390 FILLER_0_28_289
*4391 FILLER_0_28_29
*4392 FILLER_0_28_3
*4393 FILLER_0_28_301
*4394 FILLER_0_28_307
*4395 FILLER_0_28_309
*4396 FILLER_0_28_321
*4397 FILLER_0_28_333
*4398 FILLER_0_28_345
*4399 FILLER_0_28_357
*4400 FILLER_0_28_363
*4401 FILLER_0_28_365
*4402 FILLER_0_28_377
*4403 FILLER_0_28_389
*4404 FILLER_0_28_401
*4405 FILLER_0_28_41
*4406 FILLER_0_28_413
*4407 FILLER_0_28_419
*4408 FILLER_0_28_421
*4409 FILLER_0_28_433
*4410 FILLER_0_28_445
*4411 FILLER_0_28_457
*4412 FILLER_0_28_469
*4413 FILLER_0_28_475
*4414 FILLER_0_28_477
*4415 FILLER_0_28_489
*4416 FILLER_0_28_501
*4417 FILLER_0_28_513
*4418 FILLER_0_28_525
*4419 FILLER_0_28_53
*4420 FILLER_0_28_531
*4421 FILLER_0_28_533
*4422 FILLER_0_28_545
*4423 FILLER_0_28_557
*4424 FILLER_0_28_569
*4425 FILLER_0_28_581
*4426 FILLER_0_28_587
*4427 FILLER_0_28_589
*4428 FILLER_0_28_601
*4429 FILLER_0_28_613
*4430 FILLER_0_28_625
*4431 FILLER_0_28_637
*4432 FILLER_0_28_643
*4433 FILLER_0_28_645
*4434 FILLER_0_28_65
*4435 FILLER_0_28_657
*4436 FILLER_0_28_669
*4437 FILLER_0_28_681
*4438 FILLER_0_28_693
*4439 FILLER_0_28_699
*4440 FILLER_0_28_701
*4441 FILLER_0_28_713
*4442 FILLER_0_28_725
*4443 FILLER_0_28_737
*4444 FILLER_0_28_749
*4445 FILLER_0_28_755
*4446 FILLER_0_28_757
*4447 FILLER_0_28_769
*4448 FILLER_0_28_77
*4449 FILLER_0_28_777
*4450 FILLER_0_28_83
*4451 FILLER_0_28_85
*4452 FILLER_0_28_97
*4453 FILLER_0_29_105
*4454 FILLER_0_29_111
*4455 FILLER_0_29_113
*4456 FILLER_0_29_125
*4457 FILLER_0_29_137
*4458 FILLER_0_29_149
*4459 FILLER_0_29_15
*4460 FILLER_0_29_161
*4461 FILLER_0_29_167
*4462 FILLER_0_29_169
*4463 FILLER_0_29_181
*4464 FILLER_0_29_193
*4465 FILLER_0_29_205
*4466 FILLER_0_29_217
*4467 FILLER_0_29_223
*4468 FILLER_0_29_225
*4469 FILLER_0_29_237
*4470 FILLER_0_29_249
*4471 FILLER_0_29_261
*4472 FILLER_0_29_27
*4473 FILLER_0_29_273
*4474 FILLER_0_29_279
*4475 FILLER_0_29_281
*4476 FILLER_0_29_293
*4477 FILLER_0_29_3
*4478 FILLER_0_29_305
*4479 FILLER_0_29_317
*4480 FILLER_0_29_329
*4481 FILLER_0_29_335
*4482 FILLER_0_29_337
*4483 FILLER_0_29_349
*4484 FILLER_0_29_361
*4485 FILLER_0_29_373
*4486 FILLER_0_29_385
*4487 FILLER_0_29_39
*4488 FILLER_0_29_391
*4489 FILLER_0_29_393
*4490 FILLER_0_29_405
*4491 FILLER_0_29_417
*4492 FILLER_0_29_429
*4493 FILLER_0_29_441
*4494 FILLER_0_29_447
*4495 FILLER_0_29_449
*4496 FILLER_0_29_461
*4497 FILLER_0_29_473
*4498 FILLER_0_29_485
*4499 FILLER_0_29_497
*4500 FILLER_0_29_503
*4501 FILLER_0_29_505
*4502 FILLER_0_29_51
*4503 FILLER_0_29_517
*4504 FILLER_0_29_529
*4505 FILLER_0_29_541
*4506 FILLER_0_29_55
*4507 FILLER_0_29_553
*4508 FILLER_0_29_559
*4509 FILLER_0_29_561
*4510 FILLER_0_29_57
*4511 FILLER_0_29_573
*4512 FILLER_0_29_585
*4513 FILLER_0_29_597
*4514 FILLER_0_29_609
*4515 FILLER_0_29_615
*4516 FILLER_0_29_617
*4517 FILLER_0_29_629
*4518 FILLER_0_29_641
*4519 FILLER_0_29_653
*4520 FILLER_0_29_665
*4521 FILLER_0_29_671
*4522 FILLER_0_29_673
*4523 FILLER_0_29_685
*4524 FILLER_0_29_69
*4525 FILLER_0_29_697
*4526 FILLER_0_29_709
*4527 FILLER_0_29_721
*4528 FILLER_0_29_727
*4529 FILLER_0_29_729
*4530 FILLER_0_29_741
*4531 FILLER_0_29_753
*4532 FILLER_0_29_765
*4533 FILLER_0_29_777
*4534 FILLER_0_29_81
*4535 FILLER_0_29_93
*4536 FILLER_0_2_109
*4537 FILLER_0_2_121
*4538 FILLER_0_2_133
*4539 FILLER_0_2_139
*4540 FILLER_0_2_141
*4541 FILLER_0_2_15
*4542 FILLER_0_2_153
*4543 FILLER_0_2_165
*4544 FILLER_0_2_177
*4545 FILLER_0_2_189
*4546 FILLER_0_2_195
*4547 FILLER_0_2_197
*4548 FILLER_0_2_209
*4549 FILLER_0_2_221
*4550 FILLER_0_2_233
*4551 FILLER_0_2_245
*4552 FILLER_0_2_251
*4553 FILLER_0_2_253
*4554 FILLER_0_2_265
*4555 FILLER_0_2_27
*4556 FILLER_0_2_277
*4557 FILLER_0_2_289
*4558 FILLER_0_2_29
*4559 FILLER_0_2_3
*4560 FILLER_0_2_301
*4561 FILLER_0_2_307
*4562 FILLER_0_2_309
*4563 FILLER_0_2_321
*4564 FILLER_0_2_333
*4565 FILLER_0_2_345
*4566 FILLER_0_2_357
*4567 FILLER_0_2_363
*4568 FILLER_0_2_365
*4569 FILLER_0_2_377
*4570 FILLER_0_2_389
*4571 FILLER_0_2_401
*4572 FILLER_0_2_41
*4573 FILLER_0_2_413
*4574 FILLER_0_2_419
*4575 FILLER_0_2_421
*4576 FILLER_0_2_433
*4577 FILLER_0_2_445
*4578 FILLER_0_2_457
*4579 FILLER_0_2_469
*4580 FILLER_0_2_475
*4581 FILLER_0_2_477
*4582 FILLER_0_2_489
*4583 FILLER_0_2_501
*4584 FILLER_0_2_513
*4585 FILLER_0_2_525
*4586 FILLER_0_2_53
*4587 FILLER_0_2_531
*4588 FILLER_0_2_533
*4589 FILLER_0_2_545
*4590 FILLER_0_2_557
*4591 FILLER_0_2_569
*4592 FILLER_0_2_581
*4593 FILLER_0_2_587
*4594 FILLER_0_2_589
*4595 FILLER_0_2_601
*4596 FILLER_0_2_613
*4597 FILLER_0_2_625
*4598 FILLER_0_2_637
*4599 FILLER_0_2_643
*4600 FILLER_0_2_645
*4601 FILLER_0_2_65
*4602 FILLER_0_2_657
*4603 FILLER_0_2_669
*4604 FILLER_0_2_681
*4605 FILLER_0_2_693
*4606 FILLER_0_2_699
*4607 FILLER_0_2_701
*4608 FILLER_0_2_713
*4609 FILLER_0_2_725
*4610 FILLER_0_2_737
*4611 FILLER_0_2_749
*4612 FILLER_0_2_755
*4613 FILLER_0_2_757
*4614 FILLER_0_2_769
*4615 FILLER_0_2_77
*4616 FILLER_0_2_777
*4617 FILLER_0_2_83
*4618 FILLER_0_2_85
*4619 FILLER_0_2_97
*4620 FILLER_0_30_109
*4621 FILLER_0_30_121
*4622 FILLER_0_30_133
*4623 FILLER_0_30_139
*4624 FILLER_0_30_141
*4625 FILLER_0_30_153
*4626 FILLER_0_30_165
*4627 FILLER_0_30_177
*4628 FILLER_0_30_189
*4629 FILLER_0_30_195
*4630 FILLER_0_30_197
*4631 FILLER_0_30_209
*4632 FILLER_0_30_21
*4633 FILLER_0_30_221
*4634 FILLER_0_30_233
*4635 FILLER_0_30_245
*4636 FILLER_0_30_251
*4637 FILLER_0_30_253
*4638 FILLER_0_30_265
*4639 FILLER_0_30_27
*4640 FILLER_0_30_277
*4641 FILLER_0_30_289
*4642 FILLER_0_30_29
*4643 FILLER_0_30_301
*4644 FILLER_0_30_307
*4645 FILLER_0_30_309
*4646 FILLER_0_30_321
*4647 FILLER_0_30_333
*4648 FILLER_0_30_345
*4649 FILLER_0_30_357
*4650 FILLER_0_30_363
*4651 FILLER_0_30_365
*4652 FILLER_0_30_377
*4653 FILLER_0_30_389
*4654 FILLER_0_30_401
*4655 FILLER_0_30_41
*4656 FILLER_0_30_413
*4657 FILLER_0_30_419
*4658 FILLER_0_30_421
*4659 FILLER_0_30_433
*4660 FILLER_0_30_445
*4661 FILLER_0_30_457
*4662 FILLER_0_30_469
*4663 FILLER_0_30_475
*4664 FILLER_0_30_477
*4665 FILLER_0_30_489
*4666 FILLER_0_30_501
*4667 FILLER_0_30_513
*4668 FILLER_0_30_525
*4669 FILLER_0_30_53
*4670 FILLER_0_30_531
*4671 FILLER_0_30_533
*4672 FILLER_0_30_545
*4673 FILLER_0_30_557
*4674 FILLER_0_30_569
*4675 FILLER_0_30_581
*4676 FILLER_0_30_587
*4677 FILLER_0_30_589
*4678 FILLER_0_30_601
*4679 FILLER_0_30_613
*4680 FILLER_0_30_625
*4681 FILLER_0_30_637
*4682 FILLER_0_30_643
*4683 FILLER_0_30_645
*4684 FILLER_0_30_65
*4685 FILLER_0_30_657
*4686 FILLER_0_30_669
*4687 FILLER_0_30_681
*4688 FILLER_0_30_693
*4689 FILLER_0_30_699
*4690 FILLER_0_30_701
*4691 FILLER_0_30_713
*4692 FILLER_0_30_725
*4693 FILLER_0_30_737
*4694 FILLER_0_30_749
*4695 FILLER_0_30_755
*4696 FILLER_0_30_757
*4697 FILLER_0_30_769
*4698 FILLER_0_30_77
*4699 FILLER_0_30_777
*4700 FILLER_0_30_83
*4701 FILLER_0_30_85
*4702 FILLER_0_30_9
*4703 FILLER_0_30_97
*4704 FILLER_0_31_105
*4705 FILLER_0_31_111
*4706 FILLER_0_31_113
*4707 FILLER_0_31_125
*4708 FILLER_0_31_137
*4709 FILLER_0_31_149
*4710 FILLER_0_31_15
*4711 FILLER_0_31_161
*4712 FILLER_0_31_167
*4713 FILLER_0_31_169
*4714 FILLER_0_31_181
*4715 FILLER_0_31_193
*4716 FILLER_0_31_205
*4717 FILLER_0_31_217
*4718 FILLER_0_31_223
*4719 FILLER_0_31_225
*4720 FILLER_0_31_237
*4721 FILLER_0_31_249
*4722 FILLER_0_31_261
*4723 FILLER_0_31_27
*4724 FILLER_0_31_273
*4725 FILLER_0_31_279
*4726 FILLER_0_31_281
*4727 FILLER_0_31_293
*4728 FILLER_0_31_3
*4729 FILLER_0_31_305
*4730 FILLER_0_31_317
*4731 FILLER_0_31_329
*4732 FILLER_0_31_335
*4733 FILLER_0_31_337
*4734 FILLER_0_31_349
*4735 FILLER_0_31_361
*4736 FILLER_0_31_373
*4737 FILLER_0_31_385
*4738 FILLER_0_31_39
*4739 FILLER_0_31_391
*4740 FILLER_0_31_393
*4741 FILLER_0_31_405
*4742 FILLER_0_31_417
*4743 FILLER_0_31_429
*4744 FILLER_0_31_441
*4745 FILLER_0_31_447
*4746 FILLER_0_31_449
*4747 FILLER_0_31_461
*4748 FILLER_0_31_473
*4749 FILLER_0_31_485
*4750 FILLER_0_31_497
*4751 FILLER_0_31_503
*4752 FILLER_0_31_505
*4753 FILLER_0_31_51
*4754 FILLER_0_31_517
*4755 FILLER_0_31_529
*4756 FILLER_0_31_541
*4757 FILLER_0_31_55
*4758 FILLER_0_31_553
*4759 FILLER_0_31_559
*4760 FILLER_0_31_561
*4761 FILLER_0_31_57
*4762 FILLER_0_31_573
*4763 FILLER_0_31_585
*4764 FILLER_0_31_597
*4765 FILLER_0_31_609
*4766 FILLER_0_31_615
*4767 FILLER_0_31_617
*4768 FILLER_0_31_629
*4769 FILLER_0_31_641
*4770 FILLER_0_31_653
*4771 FILLER_0_31_665
*4772 FILLER_0_31_671
*4773 FILLER_0_31_673
*4774 FILLER_0_31_685
*4775 FILLER_0_31_69
*4776 FILLER_0_31_697
*4777 FILLER_0_31_709
*4778 FILLER_0_31_721
*4779 FILLER_0_31_727
*4780 FILLER_0_31_729
*4781 FILLER_0_31_741
*4782 FILLER_0_31_753
*4783 FILLER_0_31_765
*4784 FILLER_0_31_777
*4785 FILLER_0_31_81
*4786 FILLER_0_31_93
*4787 FILLER_0_32_109
*4788 FILLER_0_32_121
*4789 FILLER_0_32_133
*4790 FILLER_0_32_139
*4791 FILLER_0_32_141
*4792 FILLER_0_32_15
*4793 FILLER_0_32_153
*4794 FILLER_0_32_165
*4795 FILLER_0_32_177
*4796 FILLER_0_32_189
*4797 FILLER_0_32_195
*4798 FILLER_0_32_197
*4799 FILLER_0_32_209
*4800 FILLER_0_32_221
*4801 FILLER_0_32_233
*4802 FILLER_0_32_245
*4803 FILLER_0_32_251
*4804 FILLER_0_32_253
*4805 FILLER_0_32_265
*4806 FILLER_0_32_27
*4807 FILLER_0_32_277
*4808 FILLER_0_32_289
*4809 FILLER_0_32_29
*4810 FILLER_0_32_3
*4811 FILLER_0_32_301
*4812 FILLER_0_32_307
*4813 FILLER_0_32_309
*4814 FILLER_0_32_321
*4815 FILLER_0_32_333
*4816 FILLER_0_32_345
*4817 FILLER_0_32_357
*4818 FILLER_0_32_363
*4819 FILLER_0_32_365
*4820 FILLER_0_32_377
*4821 FILLER_0_32_389
*4822 FILLER_0_32_401
*4823 FILLER_0_32_41
*4824 FILLER_0_32_413
*4825 FILLER_0_32_419
*4826 FILLER_0_32_421
*4827 FILLER_0_32_433
*4828 FILLER_0_32_445
*4829 FILLER_0_32_457
*4830 FILLER_0_32_469
*4831 FILLER_0_32_475
*4832 FILLER_0_32_477
*4833 FILLER_0_32_489
*4834 FILLER_0_32_501
*4835 FILLER_0_32_513
*4836 FILLER_0_32_525
*4837 FILLER_0_32_53
*4838 FILLER_0_32_531
*4839 FILLER_0_32_533
*4840 FILLER_0_32_545
*4841 FILLER_0_32_557
*4842 FILLER_0_32_569
*4843 FILLER_0_32_581
*4844 FILLER_0_32_587
*4845 FILLER_0_32_589
*4846 FILLER_0_32_601
*4847 FILLER_0_32_613
*4848 FILLER_0_32_625
*4849 FILLER_0_32_637
*4850 FILLER_0_32_643
*4851 FILLER_0_32_645
*4852 FILLER_0_32_65
*4853 FILLER_0_32_657
*4854 FILLER_0_32_669
*4855 FILLER_0_32_681
*4856 FILLER_0_32_693
*4857 FILLER_0_32_699
*4858 FILLER_0_32_701
*4859 FILLER_0_32_713
*4860 FILLER_0_32_725
*4861 FILLER_0_32_737
*4862 FILLER_0_32_749
*4863 FILLER_0_32_755
*4864 FILLER_0_32_757
*4865 FILLER_0_32_769
*4866 FILLER_0_32_77
*4867 FILLER_0_32_777
*4868 FILLER_0_32_83
*4869 FILLER_0_32_85
*4870 FILLER_0_32_97
*4871 FILLER_0_33_105
*4872 FILLER_0_33_111
*4873 FILLER_0_33_113
*4874 FILLER_0_33_125
*4875 FILLER_0_33_137
*4876 FILLER_0_33_149
*4877 FILLER_0_33_15
*4878 FILLER_0_33_161
*4879 FILLER_0_33_167
*4880 FILLER_0_33_169
*4881 FILLER_0_33_181
*4882 FILLER_0_33_193
*4883 FILLER_0_33_205
*4884 FILLER_0_33_217
*4885 FILLER_0_33_223
*4886 FILLER_0_33_225
*4887 FILLER_0_33_237
*4888 FILLER_0_33_249
*4889 FILLER_0_33_261
*4890 FILLER_0_33_27
*4891 FILLER_0_33_273
*4892 FILLER_0_33_279
*4893 FILLER_0_33_281
*4894 FILLER_0_33_293
*4895 FILLER_0_33_3
*4896 FILLER_0_33_305
*4897 FILLER_0_33_317
*4898 FILLER_0_33_329
*4899 FILLER_0_33_335
*4900 FILLER_0_33_337
*4901 FILLER_0_33_349
*4902 FILLER_0_33_361
*4903 FILLER_0_33_373
*4904 FILLER_0_33_385
*4905 FILLER_0_33_39
*4906 FILLER_0_33_391
*4907 FILLER_0_33_393
*4908 FILLER_0_33_405
*4909 FILLER_0_33_417
*4910 FILLER_0_33_429
*4911 FILLER_0_33_441
*4912 FILLER_0_33_447
*4913 FILLER_0_33_449
*4914 FILLER_0_33_461
*4915 FILLER_0_33_473
*4916 FILLER_0_33_485
*4917 FILLER_0_33_497
*4918 FILLER_0_33_503
*4919 FILLER_0_33_505
*4920 FILLER_0_33_51
*4921 FILLER_0_33_517
*4922 FILLER_0_33_529
*4923 FILLER_0_33_541
*4924 FILLER_0_33_55
*4925 FILLER_0_33_553
*4926 FILLER_0_33_559
*4927 FILLER_0_33_561
*4928 FILLER_0_33_57
*4929 FILLER_0_33_573
*4930 FILLER_0_33_585
*4931 FILLER_0_33_597
*4932 FILLER_0_33_609
*4933 FILLER_0_33_615
*4934 FILLER_0_33_617
*4935 FILLER_0_33_629
*4936 FILLER_0_33_641
*4937 FILLER_0_33_653
*4938 FILLER_0_33_665
*4939 FILLER_0_33_671
*4940 FILLER_0_33_673
*4941 FILLER_0_33_685
*4942 FILLER_0_33_69
*4943 FILLER_0_33_697
*4944 FILLER_0_33_709
*4945 FILLER_0_33_721
*4946 FILLER_0_33_727
*4947 FILLER_0_33_729
*4948 FILLER_0_33_741
*4949 FILLER_0_33_753
*4950 FILLER_0_33_765
*4951 FILLER_0_33_777
*4952 FILLER_0_33_81
*4953 FILLER_0_33_93
*4954 FILLER_0_34_109
*4955 FILLER_0_34_121
*4956 FILLER_0_34_133
*4957 FILLER_0_34_139
*4958 FILLER_0_34_141
*4959 FILLER_0_34_15
*4960 FILLER_0_34_153
*4961 FILLER_0_34_165
*4962 FILLER_0_34_177
*4963 FILLER_0_34_189
*4964 FILLER_0_34_195
*4965 FILLER_0_34_197
*4966 FILLER_0_34_209
*4967 FILLER_0_34_221
*4968 FILLER_0_34_233
*4969 FILLER_0_34_245
*4970 FILLER_0_34_251
*4971 FILLER_0_34_253
*4972 FILLER_0_34_265
*4973 FILLER_0_34_27
*4974 FILLER_0_34_277
*4975 FILLER_0_34_289
*4976 FILLER_0_34_29
*4977 FILLER_0_34_3
*4978 FILLER_0_34_301
*4979 FILLER_0_34_307
*4980 FILLER_0_34_309
*4981 FILLER_0_34_321
*4982 FILLER_0_34_333
*4983 FILLER_0_34_345
*4984 FILLER_0_34_357
*4985 FILLER_0_34_363
*4986 FILLER_0_34_365
*4987 FILLER_0_34_377
*4988 FILLER_0_34_389
*4989 FILLER_0_34_401
*4990 FILLER_0_34_41
*4991 FILLER_0_34_413
*4992 FILLER_0_34_419
*4993 FILLER_0_34_421
*4994 FILLER_0_34_433
*4995 FILLER_0_34_445
*4996 FILLER_0_34_457
*4997 FILLER_0_34_469
*4998 FILLER_0_34_475
*4999 FILLER_0_34_477
*5000 FILLER_0_34_489
*5001 FILLER_0_34_501
*5002 FILLER_0_34_513
*5003 FILLER_0_34_525
*5004 FILLER_0_34_53
*5005 FILLER_0_34_531
*5006 FILLER_0_34_533
*5007 FILLER_0_34_545
*5008 FILLER_0_34_557
*5009 FILLER_0_34_569
*5010 FILLER_0_34_581
*5011 FILLER_0_34_587
*5012 FILLER_0_34_589
*5013 FILLER_0_34_601
*5014 FILLER_0_34_613
*5015 FILLER_0_34_625
*5016 FILLER_0_34_637
*5017 FILLER_0_34_643
*5018 FILLER_0_34_645
*5019 FILLER_0_34_65
*5020 FILLER_0_34_657
*5021 FILLER_0_34_669
*5022 FILLER_0_34_681
*5023 FILLER_0_34_693
*5024 FILLER_0_34_699
*5025 FILLER_0_34_701
*5026 FILLER_0_34_713
*5027 FILLER_0_34_725
*5028 FILLER_0_34_737
*5029 FILLER_0_34_749
*5030 FILLER_0_34_755
*5031 FILLER_0_34_757
*5032 FILLER_0_34_769
*5033 FILLER_0_34_77
*5034 FILLER_0_34_777
*5035 FILLER_0_34_83
*5036 FILLER_0_34_85
*5037 FILLER_0_34_97
*5038 FILLER_0_35_105
*5039 FILLER_0_35_111
*5040 FILLER_0_35_113
*5041 FILLER_0_35_125
*5042 FILLER_0_35_137
*5043 FILLER_0_35_149
*5044 FILLER_0_35_15
*5045 FILLER_0_35_161
*5046 FILLER_0_35_167
*5047 FILLER_0_35_169
*5048 FILLER_0_35_181
*5049 FILLER_0_35_193
*5050 FILLER_0_35_205
*5051 FILLER_0_35_217
*5052 FILLER_0_35_223
*5053 FILLER_0_35_225
*5054 FILLER_0_35_237
*5055 FILLER_0_35_249
*5056 FILLER_0_35_261
*5057 FILLER_0_35_27
*5058 FILLER_0_35_273
*5059 FILLER_0_35_279
*5060 FILLER_0_35_281
*5061 FILLER_0_35_293
*5062 FILLER_0_35_3
*5063 FILLER_0_35_305
*5064 FILLER_0_35_317
*5065 FILLER_0_35_329
*5066 FILLER_0_35_335
*5067 FILLER_0_35_337
*5068 FILLER_0_35_349
*5069 FILLER_0_35_361
*5070 FILLER_0_35_373
*5071 FILLER_0_35_385
*5072 FILLER_0_35_39
*5073 FILLER_0_35_391
*5074 FILLER_0_35_393
*5075 FILLER_0_35_405
*5076 FILLER_0_35_417
*5077 FILLER_0_35_429
*5078 FILLER_0_35_441
*5079 FILLER_0_35_447
*5080 FILLER_0_35_449
*5081 FILLER_0_35_461
*5082 FILLER_0_35_473
*5083 FILLER_0_35_485
*5084 FILLER_0_35_497
*5085 FILLER_0_35_503
*5086 FILLER_0_35_505
*5087 FILLER_0_35_51
*5088 FILLER_0_35_517
*5089 FILLER_0_35_529
*5090 FILLER_0_35_541
*5091 FILLER_0_35_55
*5092 FILLER_0_35_553
*5093 FILLER_0_35_559
*5094 FILLER_0_35_561
*5095 FILLER_0_35_57
*5096 FILLER_0_35_573
*5097 FILLER_0_35_585
*5098 FILLER_0_35_597
*5099 FILLER_0_35_609
*5100 FILLER_0_35_615
*5101 FILLER_0_35_617
*5102 FILLER_0_35_629
*5103 FILLER_0_35_641
*5104 FILLER_0_35_653
*5105 FILLER_0_35_665
*5106 FILLER_0_35_671
*5107 FILLER_0_35_673
*5108 FILLER_0_35_685
*5109 FILLER_0_35_69
*5110 FILLER_0_35_697
*5111 FILLER_0_35_709
*5112 FILLER_0_35_721
*5113 FILLER_0_35_727
*5114 FILLER_0_35_729
*5115 FILLER_0_35_741
*5116 FILLER_0_35_753
*5117 FILLER_0_35_765
*5118 FILLER_0_35_777
*5119 FILLER_0_35_81
*5120 FILLER_0_35_93
*5121 FILLER_0_36_109
*5122 FILLER_0_36_121
*5123 FILLER_0_36_133
*5124 FILLER_0_36_139
*5125 FILLER_0_36_141
*5126 FILLER_0_36_15
*5127 FILLER_0_36_153
*5128 FILLER_0_36_165
*5129 FILLER_0_36_177
*5130 FILLER_0_36_189
*5131 FILLER_0_36_195
*5132 FILLER_0_36_197
*5133 FILLER_0_36_209
*5134 FILLER_0_36_221
*5135 FILLER_0_36_233
*5136 FILLER_0_36_245
*5137 FILLER_0_36_251
*5138 FILLER_0_36_253
*5139 FILLER_0_36_265
*5140 FILLER_0_36_27
*5141 FILLER_0_36_277
*5142 FILLER_0_36_289
*5143 FILLER_0_36_29
*5144 FILLER_0_36_3
*5145 FILLER_0_36_301
*5146 FILLER_0_36_307
*5147 FILLER_0_36_309
*5148 FILLER_0_36_321
*5149 FILLER_0_36_333
*5150 FILLER_0_36_345
*5151 FILLER_0_36_357
*5152 FILLER_0_36_363
*5153 FILLER_0_36_365
*5154 FILLER_0_36_377
*5155 FILLER_0_36_389
*5156 FILLER_0_36_401
*5157 FILLER_0_36_41
*5158 FILLER_0_36_413
*5159 FILLER_0_36_419
*5160 FILLER_0_36_421
*5161 FILLER_0_36_433
*5162 FILLER_0_36_445
*5163 FILLER_0_36_457
*5164 FILLER_0_36_469
*5165 FILLER_0_36_475
*5166 FILLER_0_36_477
*5167 FILLER_0_36_489
*5168 FILLER_0_36_501
*5169 FILLER_0_36_513
*5170 FILLER_0_36_525
*5171 FILLER_0_36_53
*5172 FILLER_0_36_531
*5173 FILLER_0_36_533
*5174 FILLER_0_36_545
*5175 FILLER_0_36_557
*5176 FILLER_0_36_569
*5177 FILLER_0_36_581
*5178 FILLER_0_36_587
*5179 FILLER_0_36_589
*5180 FILLER_0_36_601
*5181 FILLER_0_36_613
*5182 FILLER_0_36_625
*5183 FILLER_0_36_637
*5184 FILLER_0_36_643
*5185 FILLER_0_36_645
*5186 FILLER_0_36_65
*5187 FILLER_0_36_657
*5188 FILLER_0_36_669
*5189 FILLER_0_36_681
*5190 FILLER_0_36_693
*5191 FILLER_0_36_699
*5192 FILLER_0_36_701
*5193 FILLER_0_36_713
*5194 FILLER_0_36_725
*5195 FILLER_0_36_737
*5196 FILLER_0_36_749
*5197 FILLER_0_36_755
*5198 FILLER_0_36_757
*5199 FILLER_0_36_769
*5200 FILLER_0_36_77
*5201 FILLER_0_36_777
*5202 FILLER_0_36_83
*5203 FILLER_0_36_85
*5204 FILLER_0_36_97
*5205 FILLER_0_37_105
*5206 FILLER_0_37_111
*5207 FILLER_0_37_113
*5208 FILLER_0_37_125
*5209 FILLER_0_37_137
*5210 FILLER_0_37_149
*5211 FILLER_0_37_15
*5212 FILLER_0_37_161
*5213 FILLER_0_37_167
*5214 FILLER_0_37_169
*5215 FILLER_0_37_181
*5216 FILLER_0_37_193
*5217 FILLER_0_37_205
*5218 FILLER_0_37_217
*5219 FILLER_0_37_223
*5220 FILLER_0_37_225
*5221 FILLER_0_37_237
*5222 FILLER_0_37_249
*5223 FILLER_0_37_261
*5224 FILLER_0_37_27
*5225 FILLER_0_37_273
*5226 FILLER_0_37_279
*5227 FILLER_0_37_281
*5228 FILLER_0_37_293
*5229 FILLER_0_37_3
*5230 FILLER_0_37_305
*5231 FILLER_0_37_317
*5232 FILLER_0_37_329
*5233 FILLER_0_37_335
*5234 FILLER_0_37_337
*5235 FILLER_0_37_349
*5236 FILLER_0_37_361
*5237 FILLER_0_37_373
*5238 FILLER_0_37_385
*5239 FILLER_0_37_39
*5240 FILLER_0_37_391
*5241 FILLER_0_37_393
*5242 FILLER_0_37_405
*5243 FILLER_0_37_417
*5244 FILLER_0_37_429
*5245 FILLER_0_37_441
*5246 FILLER_0_37_447
*5247 FILLER_0_37_449
*5248 FILLER_0_37_461
*5249 FILLER_0_37_473
*5250 FILLER_0_37_485
*5251 FILLER_0_37_497
*5252 FILLER_0_37_503
*5253 FILLER_0_37_505
*5254 FILLER_0_37_51
*5255 FILLER_0_37_517
*5256 FILLER_0_37_529
*5257 FILLER_0_37_541
*5258 FILLER_0_37_55
*5259 FILLER_0_37_553
*5260 FILLER_0_37_559
*5261 FILLER_0_37_561
*5262 FILLER_0_37_57
*5263 FILLER_0_37_573
*5264 FILLER_0_37_585
*5265 FILLER_0_37_597
*5266 FILLER_0_37_609
*5267 FILLER_0_37_615
*5268 FILLER_0_37_617
*5269 FILLER_0_37_629
*5270 FILLER_0_37_641
*5271 FILLER_0_37_653
*5272 FILLER_0_37_665
*5273 FILLER_0_37_671
*5274 FILLER_0_37_673
*5275 FILLER_0_37_685
*5276 FILLER_0_37_69
*5277 FILLER_0_37_697
*5278 FILLER_0_37_709
*5279 FILLER_0_37_721
*5280 FILLER_0_37_727
*5281 FILLER_0_37_729
*5282 FILLER_0_37_741
*5283 FILLER_0_37_753
*5284 FILLER_0_37_765
*5285 FILLER_0_37_777
*5286 FILLER_0_37_81
*5287 FILLER_0_37_93
*5288 FILLER_0_38_109
*5289 FILLER_0_38_121
*5290 FILLER_0_38_133
*5291 FILLER_0_38_139
*5292 FILLER_0_38_141
*5293 FILLER_0_38_15
*5294 FILLER_0_38_153
*5295 FILLER_0_38_165
*5296 FILLER_0_38_177
*5297 FILLER_0_38_189
*5298 FILLER_0_38_195
*5299 FILLER_0_38_197
*5300 FILLER_0_38_209
*5301 FILLER_0_38_221
*5302 FILLER_0_38_233
*5303 FILLER_0_38_245
*5304 FILLER_0_38_251
*5305 FILLER_0_38_253
*5306 FILLER_0_38_265
*5307 FILLER_0_38_27
*5308 FILLER_0_38_277
*5309 FILLER_0_38_289
*5310 FILLER_0_38_29
*5311 FILLER_0_38_3
*5312 FILLER_0_38_301
*5313 FILLER_0_38_307
*5314 FILLER_0_38_309
*5315 FILLER_0_38_321
*5316 FILLER_0_38_333
*5317 FILLER_0_38_345
*5318 FILLER_0_38_357
*5319 FILLER_0_38_363
*5320 FILLER_0_38_365
*5321 FILLER_0_38_377
*5322 FILLER_0_38_389
*5323 FILLER_0_38_401
*5324 FILLER_0_38_41
*5325 FILLER_0_38_413
*5326 FILLER_0_38_419
*5327 FILLER_0_38_421
*5328 FILLER_0_38_433
*5329 FILLER_0_38_445
*5330 FILLER_0_38_457
*5331 FILLER_0_38_469
*5332 FILLER_0_38_475
*5333 FILLER_0_38_477
*5334 FILLER_0_38_489
*5335 FILLER_0_38_501
*5336 FILLER_0_38_513
*5337 FILLER_0_38_525
*5338 FILLER_0_38_53
*5339 FILLER_0_38_531
*5340 FILLER_0_38_533
*5341 FILLER_0_38_545
*5342 FILLER_0_38_557
*5343 FILLER_0_38_569
*5344 FILLER_0_38_581
*5345 FILLER_0_38_587
*5346 FILLER_0_38_589
*5347 FILLER_0_38_601
*5348 FILLER_0_38_613
*5349 FILLER_0_38_625
*5350 FILLER_0_38_637
*5351 FILLER_0_38_643
*5352 FILLER_0_38_645
*5353 FILLER_0_38_65
*5354 FILLER_0_38_657
*5355 FILLER_0_38_669
*5356 FILLER_0_38_681
*5357 FILLER_0_38_693
*5358 FILLER_0_38_699
*5359 FILLER_0_38_701
*5360 FILLER_0_38_713
*5361 FILLER_0_38_725
*5362 FILLER_0_38_737
*5363 FILLER_0_38_749
*5364 FILLER_0_38_755
*5365 FILLER_0_38_757
*5366 FILLER_0_38_769
*5367 FILLER_0_38_77
*5368 FILLER_0_38_777
*5369 FILLER_0_38_83
*5370 FILLER_0_38_85
*5371 FILLER_0_38_97
*5372 FILLER_0_39_105
*5373 FILLER_0_39_111
*5374 FILLER_0_39_113
*5375 FILLER_0_39_125
*5376 FILLER_0_39_137
*5377 FILLER_0_39_149
*5378 FILLER_0_39_15
*5379 FILLER_0_39_161
*5380 FILLER_0_39_167
*5381 FILLER_0_39_169
*5382 FILLER_0_39_181
*5383 FILLER_0_39_193
*5384 FILLER_0_39_205
*5385 FILLER_0_39_217
*5386 FILLER_0_39_223
*5387 FILLER_0_39_225
*5388 FILLER_0_39_237
*5389 FILLER_0_39_249
*5390 FILLER_0_39_261
*5391 FILLER_0_39_27
*5392 FILLER_0_39_273
*5393 FILLER_0_39_279
*5394 FILLER_0_39_281
*5395 FILLER_0_39_293
*5396 FILLER_0_39_3
*5397 FILLER_0_39_305
*5398 FILLER_0_39_317
*5399 FILLER_0_39_329
*5400 FILLER_0_39_335
*5401 FILLER_0_39_337
*5402 FILLER_0_39_349
*5403 FILLER_0_39_361
*5404 FILLER_0_39_373
*5405 FILLER_0_39_385
*5406 FILLER_0_39_39
*5407 FILLER_0_39_391
*5408 FILLER_0_39_393
*5409 FILLER_0_39_405
*5410 FILLER_0_39_417
*5411 FILLER_0_39_429
*5412 FILLER_0_39_441
*5413 FILLER_0_39_447
*5414 FILLER_0_39_449
*5415 FILLER_0_39_461
*5416 FILLER_0_39_473
*5417 FILLER_0_39_485
*5418 FILLER_0_39_497
*5419 FILLER_0_39_503
*5420 FILLER_0_39_505
*5421 FILLER_0_39_51
*5422 FILLER_0_39_517
*5423 FILLER_0_39_529
*5424 FILLER_0_39_541
*5425 FILLER_0_39_55
*5426 FILLER_0_39_553
*5427 FILLER_0_39_559
*5428 FILLER_0_39_561
*5429 FILLER_0_39_57
*5430 FILLER_0_39_573
*5431 FILLER_0_39_585
*5432 FILLER_0_39_597
*5433 FILLER_0_39_609
*5434 FILLER_0_39_615
*5435 FILLER_0_39_617
*5436 FILLER_0_39_629
*5437 FILLER_0_39_641
*5438 FILLER_0_39_653
*5439 FILLER_0_39_665
*5440 FILLER_0_39_671
*5441 FILLER_0_39_673
*5442 FILLER_0_39_685
*5443 FILLER_0_39_69
*5444 FILLER_0_39_697
*5445 FILLER_0_39_709
*5446 FILLER_0_39_721
*5447 FILLER_0_39_727
*5448 FILLER_0_39_729
*5449 FILLER_0_39_741
*5450 FILLER_0_39_753
*5451 FILLER_0_39_765
*5452 FILLER_0_39_777
*5453 FILLER_0_39_81
*5454 FILLER_0_39_93
*5455 FILLER_0_3_105
*5456 FILLER_0_3_111
*5457 FILLER_0_3_113
*5458 FILLER_0_3_125
*5459 FILLER_0_3_137
*5460 FILLER_0_3_149
*5461 FILLER_0_3_15
*5462 FILLER_0_3_161
*5463 FILLER_0_3_167
*5464 FILLER_0_3_169
*5465 FILLER_0_3_181
*5466 FILLER_0_3_193
*5467 FILLER_0_3_205
*5468 FILLER_0_3_217
*5469 FILLER_0_3_223
*5470 FILLER_0_3_225
*5471 FILLER_0_3_237
*5472 FILLER_0_3_249
*5473 FILLER_0_3_261
*5474 FILLER_0_3_27
*5475 FILLER_0_3_273
*5476 FILLER_0_3_279
*5477 FILLER_0_3_281
*5478 FILLER_0_3_293
*5479 FILLER_0_3_3
*5480 FILLER_0_3_305
*5481 FILLER_0_3_317
*5482 FILLER_0_3_329
*5483 FILLER_0_3_335
*5484 FILLER_0_3_337
*5485 FILLER_0_3_349
*5486 FILLER_0_3_361
*5487 FILLER_0_3_373
*5488 FILLER_0_3_385
*5489 FILLER_0_3_39
*5490 FILLER_0_3_391
*5491 FILLER_0_3_393
*5492 FILLER_0_3_405
*5493 FILLER_0_3_417
*5494 FILLER_0_3_429
*5495 FILLER_0_3_441
*5496 FILLER_0_3_447
*5497 FILLER_0_3_449
*5498 FILLER_0_3_461
*5499 FILLER_0_3_473
*5500 FILLER_0_3_485
*5501 FILLER_0_3_497
*5502 FILLER_0_3_503
*5503 FILLER_0_3_505
*5504 FILLER_0_3_51
*5505 FILLER_0_3_517
*5506 FILLER_0_3_529
*5507 FILLER_0_3_541
*5508 FILLER_0_3_55
*5509 FILLER_0_3_553
*5510 FILLER_0_3_559
*5511 FILLER_0_3_561
*5512 FILLER_0_3_57
*5513 FILLER_0_3_573
*5514 FILLER_0_3_585
*5515 FILLER_0_3_597
*5516 FILLER_0_3_609
*5517 FILLER_0_3_615
*5518 FILLER_0_3_617
*5519 FILLER_0_3_629
*5520 FILLER_0_3_641
*5521 FILLER_0_3_653
*5522 FILLER_0_3_665
*5523 FILLER_0_3_671
*5524 FILLER_0_3_673
*5525 FILLER_0_3_685
*5526 FILLER_0_3_69
*5527 FILLER_0_3_697
*5528 FILLER_0_3_709
*5529 FILLER_0_3_721
*5530 FILLER_0_3_727
*5531 FILLER_0_3_729
*5532 FILLER_0_3_741
*5533 FILLER_0_3_753
*5534 FILLER_0_3_765
*5535 FILLER_0_3_777
*5536 FILLER_0_3_81
*5537 FILLER_0_3_93
*5538 FILLER_0_40_109
*5539 FILLER_0_40_121
*5540 FILLER_0_40_133
*5541 FILLER_0_40_139
*5542 FILLER_0_40_141
*5543 FILLER_0_40_15
*5544 FILLER_0_40_153
*5545 FILLER_0_40_165
*5546 FILLER_0_40_177
*5547 FILLER_0_40_189
*5548 FILLER_0_40_195
*5549 FILLER_0_40_197
*5550 FILLER_0_40_209
*5551 FILLER_0_40_221
*5552 FILLER_0_40_233
*5553 FILLER_0_40_245
*5554 FILLER_0_40_251
*5555 FILLER_0_40_253
*5556 FILLER_0_40_265
*5557 FILLER_0_40_27
*5558 FILLER_0_40_277
*5559 FILLER_0_40_289
*5560 FILLER_0_40_29
*5561 FILLER_0_40_3
*5562 FILLER_0_40_301
*5563 FILLER_0_40_307
*5564 FILLER_0_40_309
*5565 FILLER_0_40_321
*5566 FILLER_0_40_333
*5567 FILLER_0_40_345
*5568 FILLER_0_40_357
*5569 FILLER_0_40_363
*5570 FILLER_0_40_365
*5571 FILLER_0_40_377
*5572 FILLER_0_40_389
*5573 FILLER_0_40_401
*5574 FILLER_0_40_41
*5575 FILLER_0_40_413
*5576 FILLER_0_40_419
*5577 FILLER_0_40_421
*5578 FILLER_0_40_433
*5579 FILLER_0_40_445
*5580 FILLER_0_40_457
*5581 FILLER_0_40_469
*5582 FILLER_0_40_475
*5583 FILLER_0_40_477
*5584 FILLER_0_40_489
*5585 FILLER_0_40_501
*5586 FILLER_0_40_513
*5587 FILLER_0_40_525
*5588 FILLER_0_40_53
*5589 FILLER_0_40_531
*5590 FILLER_0_40_533
*5591 FILLER_0_40_545
*5592 FILLER_0_40_557
*5593 FILLER_0_40_569
*5594 FILLER_0_40_581
*5595 FILLER_0_40_587
*5596 FILLER_0_40_589
*5597 FILLER_0_40_601
*5598 FILLER_0_40_613
*5599 FILLER_0_40_625
*5600 FILLER_0_40_637
*5601 FILLER_0_40_643
*5602 FILLER_0_40_645
*5603 FILLER_0_40_65
*5604 FILLER_0_40_657
*5605 FILLER_0_40_669
*5606 FILLER_0_40_681
*5607 FILLER_0_40_693
*5608 FILLER_0_40_699
*5609 FILLER_0_40_701
*5610 FILLER_0_40_713
*5611 FILLER_0_40_725
*5612 FILLER_0_40_737
*5613 FILLER_0_40_749
*5614 FILLER_0_40_755
*5615 FILLER_0_40_757
*5616 FILLER_0_40_769
*5617 FILLER_0_40_77
*5618 FILLER_0_40_777
*5619 FILLER_0_40_83
*5620 FILLER_0_40_85
*5621 FILLER_0_40_97
*5622 FILLER_0_41_105
*5623 FILLER_0_41_111
*5624 FILLER_0_41_113
*5625 FILLER_0_41_125
*5626 FILLER_0_41_137
*5627 FILLER_0_41_149
*5628 FILLER_0_41_15
*5629 FILLER_0_41_161
*5630 FILLER_0_41_167
*5631 FILLER_0_41_169
*5632 FILLER_0_41_181
*5633 FILLER_0_41_193
*5634 FILLER_0_41_205
*5635 FILLER_0_41_217
*5636 FILLER_0_41_223
*5637 FILLER_0_41_225
*5638 FILLER_0_41_237
*5639 FILLER_0_41_249
*5640 FILLER_0_41_261
*5641 FILLER_0_41_27
*5642 FILLER_0_41_273
*5643 FILLER_0_41_279
*5644 FILLER_0_41_281
*5645 FILLER_0_41_293
*5646 FILLER_0_41_3
*5647 FILLER_0_41_305
*5648 FILLER_0_41_317
*5649 FILLER_0_41_329
*5650 FILLER_0_41_335
*5651 FILLER_0_41_337
*5652 FILLER_0_41_349
*5653 FILLER_0_41_361
*5654 FILLER_0_41_373
*5655 FILLER_0_41_385
*5656 FILLER_0_41_39
*5657 FILLER_0_41_391
*5658 FILLER_0_41_393
*5659 FILLER_0_41_405
*5660 FILLER_0_41_417
*5661 FILLER_0_41_429
*5662 FILLER_0_41_441
*5663 FILLER_0_41_447
*5664 FILLER_0_41_449
*5665 FILLER_0_41_461
*5666 FILLER_0_41_473
*5667 FILLER_0_41_485
*5668 FILLER_0_41_497
*5669 FILLER_0_41_503
*5670 FILLER_0_41_505
*5671 FILLER_0_41_51
*5672 FILLER_0_41_517
*5673 FILLER_0_41_529
*5674 FILLER_0_41_541
*5675 FILLER_0_41_55
*5676 FILLER_0_41_553
*5677 FILLER_0_41_559
*5678 FILLER_0_41_561
*5679 FILLER_0_41_57
*5680 FILLER_0_41_573
*5681 FILLER_0_41_585
*5682 FILLER_0_41_597
*5683 FILLER_0_41_609
*5684 FILLER_0_41_615
*5685 FILLER_0_41_617
*5686 FILLER_0_41_629
*5687 FILLER_0_41_641
*5688 FILLER_0_41_653
*5689 FILLER_0_41_665
*5690 FILLER_0_41_671
*5691 FILLER_0_41_673
*5692 FILLER_0_41_685
*5693 FILLER_0_41_69
*5694 FILLER_0_41_697
*5695 FILLER_0_41_709
*5696 FILLER_0_41_721
*5697 FILLER_0_41_727
*5698 FILLER_0_41_729
*5699 FILLER_0_41_741
*5700 FILLER_0_41_753
*5701 FILLER_0_41_765
*5702 FILLER_0_41_777
*5703 FILLER_0_41_81
*5704 FILLER_0_41_93
*5705 FILLER_0_42_109
*5706 FILLER_0_42_121
*5707 FILLER_0_42_133
*5708 FILLER_0_42_139
*5709 FILLER_0_42_141
*5710 FILLER_0_42_15
*5711 FILLER_0_42_153
*5712 FILLER_0_42_165
*5713 FILLER_0_42_177
*5714 FILLER_0_42_189
*5715 FILLER_0_42_195
*5716 FILLER_0_42_197
*5717 FILLER_0_42_209
*5718 FILLER_0_42_221
*5719 FILLER_0_42_233
*5720 FILLER_0_42_245
*5721 FILLER_0_42_251
*5722 FILLER_0_42_253
*5723 FILLER_0_42_265
*5724 FILLER_0_42_27
*5725 FILLER_0_42_277
*5726 FILLER_0_42_289
*5727 FILLER_0_42_29
*5728 FILLER_0_42_3
*5729 FILLER_0_42_301
*5730 FILLER_0_42_307
*5731 FILLER_0_42_309
*5732 FILLER_0_42_321
*5733 FILLER_0_42_333
*5734 FILLER_0_42_345
*5735 FILLER_0_42_357
*5736 FILLER_0_42_363
*5737 FILLER_0_42_365
*5738 FILLER_0_42_377
*5739 FILLER_0_42_389
*5740 FILLER_0_42_401
*5741 FILLER_0_42_41
*5742 FILLER_0_42_413
*5743 FILLER_0_42_419
*5744 FILLER_0_42_421
*5745 FILLER_0_42_433
*5746 FILLER_0_42_445
*5747 FILLER_0_42_457
*5748 FILLER_0_42_469
*5749 FILLER_0_42_475
*5750 FILLER_0_42_477
*5751 FILLER_0_42_489
*5752 FILLER_0_42_501
*5753 FILLER_0_42_513
*5754 FILLER_0_42_525
*5755 FILLER_0_42_53
*5756 FILLER_0_42_531
*5757 FILLER_0_42_533
*5758 FILLER_0_42_545
*5759 FILLER_0_42_557
*5760 FILLER_0_42_569
*5761 FILLER_0_42_581
*5762 FILLER_0_42_587
*5763 FILLER_0_42_589
*5764 FILLER_0_42_601
*5765 FILLER_0_42_613
*5766 FILLER_0_42_625
*5767 FILLER_0_42_637
*5768 FILLER_0_42_643
*5769 FILLER_0_42_645
*5770 FILLER_0_42_65
*5771 FILLER_0_42_657
*5772 FILLER_0_42_669
*5773 FILLER_0_42_681
*5774 FILLER_0_42_693
*5775 FILLER_0_42_699
*5776 FILLER_0_42_701
*5777 FILLER_0_42_713
*5778 FILLER_0_42_725
*5779 FILLER_0_42_737
*5780 FILLER_0_42_749
*5781 FILLER_0_42_755
*5782 FILLER_0_42_757
*5783 FILLER_0_42_769
*5784 FILLER_0_42_77
*5785 FILLER_0_42_777
*5786 FILLER_0_42_83
*5787 FILLER_0_42_85
*5788 FILLER_0_42_97
*5789 FILLER_0_43_105
*5790 FILLER_0_43_111
*5791 FILLER_0_43_113
*5792 FILLER_0_43_125
*5793 FILLER_0_43_137
*5794 FILLER_0_43_149
*5795 FILLER_0_43_15
*5796 FILLER_0_43_161
*5797 FILLER_0_43_167
*5798 FILLER_0_43_169
*5799 FILLER_0_43_181
*5800 FILLER_0_43_193
*5801 FILLER_0_43_205
*5802 FILLER_0_43_217
*5803 FILLER_0_43_223
*5804 FILLER_0_43_225
*5805 FILLER_0_43_237
*5806 FILLER_0_43_249
*5807 FILLER_0_43_261
*5808 FILLER_0_43_27
*5809 FILLER_0_43_273
*5810 FILLER_0_43_279
*5811 FILLER_0_43_281
*5812 FILLER_0_43_293
*5813 FILLER_0_43_3
*5814 FILLER_0_43_305
*5815 FILLER_0_43_317
*5816 FILLER_0_43_329
*5817 FILLER_0_43_335
*5818 FILLER_0_43_337
*5819 FILLER_0_43_349
*5820 FILLER_0_43_361
*5821 FILLER_0_43_373
*5822 FILLER_0_43_385
*5823 FILLER_0_43_39
*5824 FILLER_0_43_391
*5825 FILLER_0_43_393
*5826 FILLER_0_43_405
*5827 FILLER_0_43_417
*5828 FILLER_0_43_429
*5829 FILLER_0_43_441
*5830 FILLER_0_43_447
*5831 FILLER_0_43_449
*5832 FILLER_0_43_461
*5833 FILLER_0_43_473
*5834 FILLER_0_43_485
*5835 FILLER_0_43_497
*5836 FILLER_0_43_503
*5837 FILLER_0_43_505
*5838 FILLER_0_43_51
*5839 FILLER_0_43_517
*5840 FILLER_0_43_529
*5841 FILLER_0_43_541
*5842 FILLER_0_43_55
*5843 FILLER_0_43_553
*5844 FILLER_0_43_559
*5845 FILLER_0_43_561
*5846 FILLER_0_43_57
*5847 FILLER_0_43_573
*5848 FILLER_0_43_585
*5849 FILLER_0_43_597
*5850 FILLER_0_43_609
*5851 FILLER_0_43_615
*5852 FILLER_0_43_617
*5853 FILLER_0_43_629
*5854 FILLER_0_43_641
*5855 FILLER_0_43_653
*5856 FILLER_0_43_665
*5857 FILLER_0_43_671
*5858 FILLER_0_43_673
*5859 FILLER_0_43_685
*5860 FILLER_0_43_69
*5861 FILLER_0_43_697
*5862 FILLER_0_43_709
*5863 FILLER_0_43_721
*5864 FILLER_0_43_727
*5865 FILLER_0_43_729
*5866 FILLER_0_43_741
*5867 FILLER_0_43_753
*5868 FILLER_0_43_765
*5869 FILLER_0_43_777
*5870 FILLER_0_43_81
*5871 FILLER_0_43_93
*5872 FILLER_0_44_109
*5873 FILLER_0_44_121
*5874 FILLER_0_44_133
*5875 FILLER_0_44_139
*5876 FILLER_0_44_141
*5877 FILLER_0_44_15
*5878 FILLER_0_44_153
*5879 FILLER_0_44_165
*5880 FILLER_0_44_177
*5881 FILLER_0_44_189
*5882 FILLER_0_44_195
*5883 FILLER_0_44_197
*5884 FILLER_0_44_209
*5885 FILLER_0_44_221
*5886 FILLER_0_44_233
*5887 FILLER_0_44_245
*5888 FILLER_0_44_251
*5889 FILLER_0_44_253
*5890 FILLER_0_44_265
*5891 FILLER_0_44_27
*5892 FILLER_0_44_277
*5893 FILLER_0_44_289
*5894 FILLER_0_44_29
*5895 FILLER_0_44_3
*5896 FILLER_0_44_301
*5897 FILLER_0_44_307
*5898 FILLER_0_44_309
*5899 FILLER_0_44_321
*5900 FILLER_0_44_333
*5901 FILLER_0_44_345
*5902 FILLER_0_44_357
*5903 FILLER_0_44_363
*5904 FILLER_0_44_365
*5905 FILLER_0_44_377
*5906 FILLER_0_44_389
*5907 FILLER_0_44_401
*5908 FILLER_0_44_41
*5909 FILLER_0_44_413
*5910 FILLER_0_44_419
*5911 FILLER_0_44_421
*5912 FILLER_0_44_433
*5913 FILLER_0_44_445
*5914 FILLER_0_44_457
*5915 FILLER_0_44_469
*5916 FILLER_0_44_475
*5917 FILLER_0_44_477
*5918 FILLER_0_44_489
*5919 FILLER_0_44_501
*5920 FILLER_0_44_513
*5921 FILLER_0_44_525
*5922 FILLER_0_44_53
*5923 FILLER_0_44_531
*5924 FILLER_0_44_533
*5925 FILLER_0_44_545
*5926 FILLER_0_44_557
*5927 FILLER_0_44_569
*5928 FILLER_0_44_581
*5929 FILLER_0_44_587
*5930 FILLER_0_44_589
*5931 FILLER_0_44_601
*5932 FILLER_0_44_613
*5933 FILLER_0_44_625
*5934 FILLER_0_44_637
*5935 FILLER_0_44_643
*5936 FILLER_0_44_645
*5937 FILLER_0_44_65
*5938 FILLER_0_44_657
*5939 FILLER_0_44_669
*5940 FILLER_0_44_681
*5941 FILLER_0_44_693
*5942 FILLER_0_44_699
*5943 FILLER_0_44_701
*5944 FILLER_0_44_713
*5945 FILLER_0_44_725
*5946 FILLER_0_44_737
*5947 FILLER_0_44_749
*5948 FILLER_0_44_755
*5949 FILLER_0_44_757
*5950 FILLER_0_44_769
*5951 FILLER_0_44_77
*5952 FILLER_0_44_777
*5953 FILLER_0_44_83
*5954 FILLER_0_44_85
*5955 FILLER_0_44_97
*5956 FILLER_0_45_105
*5957 FILLER_0_45_111
*5958 FILLER_0_45_113
*5959 FILLER_0_45_125
*5960 FILLER_0_45_137
*5961 FILLER_0_45_149
*5962 FILLER_0_45_15
*5963 FILLER_0_45_161
*5964 FILLER_0_45_167
*5965 FILLER_0_45_169
*5966 FILLER_0_45_181
*5967 FILLER_0_45_193
*5968 FILLER_0_45_205
*5969 FILLER_0_45_217
*5970 FILLER_0_45_223
*5971 FILLER_0_45_225
*5972 FILLER_0_45_237
*5973 FILLER_0_45_249
*5974 FILLER_0_45_261
*5975 FILLER_0_45_27
*5976 FILLER_0_45_273
*5977 FILLER_0_45_279
*5978 FILLER_0_45_281
*5979 FILLER_0_45_293
*5980 FILLER_0_45_3
*5981 FILLER_0_45_305
*5982 FILLER_0_45_317
*5983 FILLER_0_45_329
*5984 FILLER_0_45_335
*5985 FILLER_0_45_337
*5986 FILLER_0_45_349
*5987 FILLER_0_45_361
*5988 FILLER_0_45_373
*5989 FILLER_0_45_385
*5990 FILLER_0_45_39
*5991 FILLER_0_45_391
*5992 FILLER_0_45_393
*5993 FILLER_0_45_405
*5994 FILLER_0_45_417
*5995 FILLER_0_45_429
*5996 FILLER_0_45_441
*5997 FILLER_0_45_447
*5998 FILLER_0_45_449
*5999 FILLER_0_45_461
*6000 FILLER_0_45_473
*6001 FILLER_0_45_485
*6002 FILLER_0_45_497
*6003 FILLER_0_45_503
*6004 FILLER_0_45_505
*6005 FILLER_0_45_51
*6006 FILLER_0_45_517
*6007 FILLER_0_45_529
*6008 FILLER_0_45_541
*6009 FILLER_0_45_55
*6010 FILLER_0_45_553
*6011 FILLER_0_45_559
*6012 FILLER_0_45_561
*6013 FILLER_0_45_57
*6014 FILLER_0_45_573
*6015 FILLER_0_45_585
*6016 FILLER_0_45_597
*6017 FILLER_0_45_609
*6018 FILLER_0_45_615
*6019 FILLER_0_45_617
*6020 FILLER_0_45_629
*6021 FILLER_0_45_641
*6022 FILLER_0_45_653
*6023 FILLER_0_45_665
*6024 FILLER_0_45_671
*6025 FILLER_0_45_673
*6026 FILLER_0_45_685
*6027 FILLER_0_45_69
*6028 FILLER_0_45_697
*6029 FILLER_0_45_709
*6030 FILLER_0_45_721
*6031 FILLER_0_45_727
*6032 FILLER_0_45_729
*6033 FILLER_0_45_741
*6034 FILLER_0_45_753
*6035 FILLER_0_45_765
*6036 FILLER_0_45_777
*6037 FILLER_0_45_81
*6038 FILLER_0_45_93
*6039 FILLER_0_46_109
*6040 FILLER_0_46_121
*6041 FILLER_0_46_133
*6042 FILLER_0_46_139
*6043 FILLER_0_46_141
*6044 FILLER_0_46_15
*6045 FILLER_0_46_153
*6046 FILLER_0_46_165
*6047 FILLER_0_46_177
*6048 FILLER_0_46_189
*6049 FILLER_0_46_195
*6050 FILLER_0_46_197
*6051 FILLER_0_46_209
*6052 FILLER_0_46_221
*6053 FILLER_0_46_233
*6054 FILLER_0_46_245
*6055 FILLER_0_46_251
*6056 FILLER_0_46_253
*6057 FILLER_0_46_265
*6058 FILLER_0_46_27
*6059 FILLER_0_46_277
*6060 FILLER_0_46_289
*6061 FILLER_0_46_29
*6062 FILLER_0_46_3
*6063 FILLER_0_46_301
*6064 FILLER_0_46_307
*6065 FILLER_0_46_309
*6066 FILLER_0_46_321
*6067 FILLER_0_46_333
*6068 FILLER_0_46_345
*6069 FILLER_0_46_357
*6070 FILLER_0_46_363
*6071 FILLER_0_46_365
*6072 FILLER_0_46_377
*6073 FILLER_0_46_389
*6074 FILLER_0_46_401
*6075 FILLER_0_46_41
*6076 FILLER_0_46_413
*6077 FILLER_0_46_419
*6078 FILLER_0_46_421
*6079 FILLER_0_46_433
*6080 FILLER_0_46_445
*6081 FILLER_0_46_457
*6082 FILLER_0_46_469
*6083 FILLER_0_46_475
*6084 FILLER_0_46_477
*6085 FILLER_0_46_489
*6086 FILLER_0_46_501
*6087 FILLER_0_46_513
*6088 FILLER_0_46_525
*6089 FILLER_0_46_53
*6090 FILLER_0_46_531
*6091 FILLER_0_46_533
*6092 FILLER_0_46_545
*6093 FILLER_0_46_557
*6094 FILLER_0_46_569
*6095 FILLER_0_46_581
*6096 FILLER_0_46_587
*6097 FILLER_0_46_589
*6098 FILLER_0_46_601
*6099 FILLER_0_46_613
*6100 FILLER_0_46_625
*6101 FILLER_0_46_637
*6102 FILLER_0_46_643
*6103 FILLER_0_46_645
*6104 FILLER_0_46_65
*6105 FILLER_0_46_657
*6106 FILLER_0_46_669
*6107 FILLER_0_46_681
*6108 FILLER_0_46_693
*6109 FILLER_0_46_699
*6110 FILLER_0_46_701
*6111 FILLER_0_46_713
*6112 FILLER_0_46_725
*6113 FILLER_0_46_737
*6114 FILLER_0_46_749
*6115 FILLER_0_46_755
*6116 FILLER_0_46_757
*6117 FILLER_0_46_769
*6118 FILLER_0_46_77
*6119 FILLER_0_46_777
*6120 FILLER_0_46_83
*6121 FILLER_0_46_85
*6122 FILLER_0_46_97
*6123 FILLER_0_47_105
*6124 FILLER_0_47_111
*6125 FILLER_0_47_113
*6126 FILLER_0_47_125
*6127 FILLER_0_47_137
*6128 FILLER_0_47_149
*6129 FILLER_0_47_15
*6130 FILLER_0_47_161
*6131 FILLER_0_47_167
*6132 FILLER_0_47_169
*6133 FILLER_0_47_181
*6134 FILLER_0_47_193
*6135 FILLER_0_47_205
*6136 FILLER_0_47_217
*6137 FILLER_0_47_223
*6138 FILLER_0_47_225
*6139 FILLER_0_47_237
*6140 FILLER_0_47_249
*6141 FILLER_0_47_261
*6142 FILLER_0_47_27
*6143 FILLER_0_47_273
*6144 FILLER_0_47_279
*6145 FILLER_0_47_281
*6146 FILLER_0_47_293
*6147 FILLER_0_47_3
*6148 FILLER_0_47_305
*6149 FILLER_0_47_317
*6150 FILLER_0_47_329
*6151 FILLER_0_47_335
*6152 FILLER_0_47_337
*6153 FILLER_0_47_349
*6154 FILLER_0_47_361
*6155 FILLER_0_47_373
*6156 FILLER_0_47_385
*6157 FILLER_0_47_39
*6158 FILLER_0_47_391
*6159 FILLER_0_47_393
*6160 FILLER_0_47_405
*6161 FILLER_0_47_417
*6162 FILLER_0_47_429
*6163 FILLER_0_47_441
*6164 FILLER_0_47_447
*6165 FILLER_0_47_449
*6166 FILLER_0_47_461
*6167 FILLER_0_47_473
*6168 FILLER_0_47_485
*6169 FILLER_0_47_497
*6170 FILLER_0_47_503
*6171 FILLER_0_47_505
*6172 FILLER_0_47_51
*6173 FILLER_0_47_517
*6174 FILLER_0_47_529
*6175 FILLER_0_47_541
*6176 FILLER_0_47_55
*6177 FILLER_0_47_553
*6178 FILLER_0_47_559
*6179 FILLER_0_47_561
*6180 FILLER_0_47_57
*6181 FILLER_0_47_573
*6182 FILLER_0_47_585
*6183 FILLER_0_47_597
*6184 FILLER_0_47_609
*6185 FILLER_0_47_615
*6186 FILLER_0_47_617
*6187 FILLER_0_47_629
*6188 FILLER_0_47_641
*6189 FILLER_0_47_653
*6190 FILLER_0_47_665
*6191 FILLER_0_47_671
*6192 FILLER_0_47_673
*6193 FILLER_0_47_685
*6194 FILLER_0_47_69
*6195 FILLER_0_47_697
*6196 FILLER_0_47_709
*6197 FILLER_0_47_721
*6198 FILLER_0_47_727
*6199 FILLER_0_47_729
*6200 FILLER_0_47_741
*6201 FILLER_0_47_753
*6202 FILLER_0_47_765
*6203 FILLER_0_47_777
*6204 FILLER_0_47_81
*6205 FILLER_0_47_93
*6206 FILLER_0_48_109
*6207 FILLER_0_48_121
*6208 FILLER_0_48_133
*6209 FILLER_0_48_139
*6210 FILLER_0_48_141
*6211 FILLER_0_48_15
*6212 FILLER_0_48_153
*6213 FILLER_0_48_165
*6214 FILLER_0_48_177
*6215 FILLER_0_48_189
*6216 FILLER_0_48_195
*6217 FILLER_0_48_197
*6218 FILLER_0_48_209
*6219 FILLER_0_48_221
*6220 FILLER_0_48_233
*6221 FILLER_0_48_245
*6222 FILLER_0_48_251
*6223 FILLER_0_48_253
*6224 FILLER_0_48_265
*6225 FILLER_0_48_27
*6226 FILLER_0_48_277
*6227 FILLER_0_48_289
*6228 FILLER_0_48_29
*6229 FILLER_0_48_3
*6230 FILLER_0_48_301
*6231 FILLER_0_48_307
*6232 FILLER_0_48_309
*6233 FILLER_0_48_321
*6234 FILLER_0_48_333
*6235 FILLER_0_48_345
*6236 FILLER_0_48_357
*6237 FILLER_0_48_363
*6238 FILLER_0_48_365
*6239 FILLER_0_48_377
*6240 FILLER_0_48_389
*6241 FILLER_0_48_401
*6242 FILLER_0_48_41
*6243 FILLER_0_48_413
*6244 FILLER_0_48_419
*6245 FILLER_0_48_421
*6246 FILLER_0_48_433
*6247 FILLER_0_48_445
*6248 FILLER_0_48_457
*6249 FILLER_0_48_469
*6250 FILLER_0_48_475
*6251 FILLER_0_48_477
*6252 FILLER_0_48_489
*6253 FILLER_0_48_501
*6254 FILLER_0_48_513
*6255 FILLER_0_48_525
*6256 FILLER_0_48_53
*6257 FILLER_0_48_531
*6258 FILLER_0_48_533
*6259 FILLER_0_48_545
*6260 FILLER_0_48_557
*6261 FILLER_0_48_569
*6262 FILLER_0_48_581
*6263 FILLER_0_48_587
*6264 FILLER_0_48_589
*6265 FILLER_0_48_601
*6266 FILLER_0_48_613
*6267 FILLER_0_48_625
*6268 FILLER_0_48_637
*6269 FILLER_0_48_643
*6270 FILLER_0_48_645
*6271 FILLER_0_48_65
*6272 FILLER_0_48_657
*6273 FILLER_0_48_669
*6274 FILLER_0_48_681
*6275 FILLER_0_48_693
*6276 FILLER_0_48_699
*6277 FILLER_0_48_701
*6278 FILLER_0_48_713
*6279 FILLER_0_48_725
*6280 FILLER_0_48_737
*6281 FILLER_0_48_749
*6282 FILLER_0_48_755
*6283 FILLER_0_48_757
*6284 FILLER_0_48_769
*6285 FILLER_0_48_77
*6286 FILLER_0_48_777
*6287 FILLER_0_48_83
*6288 FILLER_0_48_85
*6289 FILLER_0_48_97
*6290 FILLER_0_49_105
*6291 FILLER_0_49_111
*6292 FILLER_0_49_113
*6293 FILLER_0_49_125
*6294 FILLER_0_49_137
*6295 FILLER_0_49_149
*6296 FILLER_0_49_15
*6297 FILLER_0_49_161
*6298 FILLER_0_49_167
*6299 FILLER_0_49_169
*6300 FILLER_0_49_181
*6301 FILLER_0_49_193
*6302 FILLER_0_49_205
*6303 FILLER_0_49_217
*6304 FILLER_0_49_223
*6305 FILLER_0_49_225
*6306 FILLER_0_49_237
*6307 FILLER_0_49_249
*6308 FILLER_0_49_261
*6309 FILLER_0_49_27
*6310 FILLER_0_49_273
*6311 FILLER_0_49_279
*6312 FILLER_0_49_281
*6313 FILLER_0_49_293
*6314 FILLER_0_49_3
*6315 FILLER_0_49_305
*6316 FILLER_0_49_317
*6317 FILLER_0_49_329
*6318 FILLER_0_49_335
*6319 FILLER_0_49_337
*6320 FILLER_0_49_349
*6321 FILLER_0_49_361
*6322 FILLER_0_49_373
*6323 FILLER_0_49_385
*6324 FILLER_0_49_39
*6325 FILLER_0_49_391
*6326 FILLER_0_49_393
*6327 FILLER_0_49_405
*6328 FILLER_0_49_417
*6329 FILLER_0_49_429
*6330 FILLER_0_49_441
*6331 FILLER_0_49_447
*6332 FILLER_0_49_449
*6333 FILLER_0_49_461
*6334 FILLER_0_49_473
*6335 FILLER_0_49_485
*6336 FILLER_0_49_497
*6337 FILLER_0_49_503
*6338 FILLER_0_49_505
*6339 FILLER_0_49_51
*6340 FILLER_0_49_517
*6341 FILLER_0_49_529
*6342 FILLER_0_49_541
*6343 FILLER_0_49_55
*6344 FILLER_0_49_553
*6345 FILLER_0_49_559
*6346 FILLER_0_49_561
*6347 FILLER_0_49_57
*6348 FILLER_0_49_573
*6349 FILLER_0_49_585
*6350 FILLER_0_49_597
*6351 FILLER_0_49_609
*6352 FILLER_0_49_615
*6353 FILLER_0_49_617
*6354 FILLER_0_49_629
*6355 FILLER_0_49_641
*6356 FILLER_0_49_653
*6357 FILLER_0_49_665
*6358 FILLER_0_49_671
*6359 FILLER_0_49_673
*6360 FILLER_0_49_685
*6361 FILLER_0_49_69
*6362 FILLER_0_49_697
*6363 FILLER_0_49_709
*6364 FILLER_0_49_721
*6365 FILLER_0_49_727
*6366 FILLER_0_49_729
*6367 FILLER_0_49_741
*6368 FILLER_0_49_753
*6369 FILLER_0_49_765
*6370 FILLER_0_49_777
*6371 FILLER_0_49_81
*6372 FILLER_0_49_93
*6373 FILLER_0_4_109
*6374 FILLER_0_4_121
*6375 FILLER_0_4_133
*6376 FILLER_0_4_139
*6377 FILLER_0_4_141
*6378 FILLER_0_4_15
*6379 FILLER_0_4_153
*6380 FILLER_0_4_165
*6381 FILLER_0_4_177
*6382 FILLER_0_4_189
*6383 FILLER_0_4_195
*6384 FILLER_0_4_197
*6385 FILLER_0_4_209
*6386 FILLER_0_4_221
*6387 FILLER_0_4_233
*6388 FILLER_0_4_245
*6389 FILLER_0_4_251
*6390 FILLER_0_4_253
*6391 FILLER_0_4_265
*6392 FILLER_0_4_27
*6393 FILLER_0_4_277
*6394 FILLER_0_4_289
*6395 FILLER_0_4_29
*6396 FILLER_0_4_3
*6397 FILLER_0_4_301
*6398 FILLER_0_4_307
*6399 FILLER_0_4_309
*6400 FILLER_0_4_321
*6401 FILLER_0_4_333
*6402 FILLER_0_4_345
*6403 FILLER_0_4_357
*6404 FILLER_0_4_363
*6405 FILLER_0_4_365
*6406 FILLER_0_4_377
*6407 FILLER_0_4_389
*6408 FILLER_0_4_401
*6409 FILLER_0_4_41
*6410 FILLER_0_4_413
*6411 FILLER_0_4_419
*6412 FILLER_0_4_421
*6413 FILLER_0_4_433
*6414 FILLER_0_4_445
*6415 FILLER_0_4_457
*6416 FILLER_0_4_469
*6417 FILLER_0_4_475
*6418 FILLER_0_4_477
*6419 FILLER_0_4_489
*6420 FILLER_0_4_501
*6421 FILLER_0_4_513
*6422 FILLER_0_4_525
*6423 FILLER_0_4_53
*6424 FILLER_0_4_531
*6425 FILLER_0_4_533
*6426 FILLER_0_4_545
*6427 FILLER_0_4_557
*6428 FILLER_0_4_569
*6429 FILLER_0_4_581
*6430 FILLER_0_4_587
*6431 FILLER_0_4_589
*6432 FILLER_0_4_601
*6433 FILLER_0_4_613
*6434 FILLER_0_4_625
*6435 FILLER_0_4_637
*6436 FILLER_0_4_643
*6437 FILLER_0_4_645
*6438 FILLER_0_4_65
*6439 FILLER_0_4_657
*6440 FILLER_0_4_669
*6441 FILLER_0_4_681
*6442 FILLER_0_4_693
*6443 FILLER_0_4_699
*6444 FILLER_0_4_701
*6445 FILLER_0_4_713
*6446 FILLER_0_4_725
*6447 FILLER_0_4_737
*6448 FILLER_0_4_749
*6449 FILLER_0_4_755
*6450 FILLER_0_4_757
*6451 FILLER_0_4_769
*6452 FILLER_0_4_77
*6453 FILLER_0_4_777
*6454 FILLER_0_4_83
*6455 FILLER_0_4_85
*6456 FILLER_0_4_97
*6457 FILLER_0_50_109
*6458 FILLER_0_50_121
*6459 FILLER_0_50_133
*6460 FILLER_0_50_139
*6461 FILLER_0_50_141
*6462 FILLER_0_50_15
*6463 FILLER_0_50_153
*6464 FILLER_0_50_165
*6465 FILLER_0_50_177
*6466 FILLER_0_50_189
*6467 FILLER_0_50_195
*6468 FILLER_0_50_197
*6469 FILLER_0_50_209
*6470 FILLER_0_50_221
*6471 FILLER_0_50_233
*6472 FILLER_0_50_245
*6473 FILLER_0_50_251
*6474 FILLER_0_50_253
*6475 FILLER_0_50_265
*6476 FILLER_0_50_27
*6477 FILLER_0_50_277
*6478 FILLER_0_50_289
*6479 FILLER_0_50_29
*6480 FILLER_0_50_3
*6481 FILLER_0_50_301
*6482 FILLER_0_50_307
*6483 FILLER_0_50_309
*6484 FILLER_0_50_321
*6485 FILLER_0_50_333
*6486 FILLER_0_50_345
*6487 FILLER_0_50_357
*6488 FILLER_0_50_363
*6489 FILLER_0_50_365
*6490 FILLER_0_50_377
*6491 FILLER_0_50_389
*6492 FILLER_0_50_401
*6493 FILLER_0_50_41
*6494 FILLER_0_50_413
*6495 FILLER_0_50_419
*6496 FILLER_0_50_421
*6497 FILLER_0_50_433
*6498 FILLER_0_50_445
*6499 FILLER_0_50_457
*6500 FILLER_0_50_469
*6501 FILLER_0_50_475
*6502 FILLER_0_50_477
*6503 FILLER_0_50_489
*6504 FILLER_0_50_501
*6505 FILLER_0_50_513
*6506 FILLER_0_50_525
*6507 FILLER_0_50_53
*6508 FILLER_0_50_531
*6509 FILLER_0_50_533
*6510 FILLER_0_50_545
*6511 FILLER_0_50_557
*6512 FILLER_0_50_569
*6513 FILLER_0_50_581
*6514 FILLER_0_50_587
*6515 FILLER_0_50_589
*6516 FILLER_0_50_601
*6517 FILLER_0_50_613
*6518 FILLER_0_50_625
*6519 FILLER_0_50_637
*6520 FILLER_0_50_643
*6521 FILLER_0_50_645
*6522 FILLER_0_50_65
*6523 FILLER_0_50_657
*6524 FILLER_0_50_669
*6525 FILLER_0_50_681
*6526 FILLER_0_50_693
*6527 FILLER_0_50_699
*6528 FILLER_0_50_701
*6529 FILLER_0_50_713
*6530 FILLER_0_50_725
*6531 FILLER_0_50_737
*6532 FILLER_0_50_749
*6533 FILLER_0_50_755
*6534 FILLER_0_50_757
*6535 FILLER_0_50_769
*6536 FILLER_0_50_77
*6537 FILLER_0_50_777
*6538 FILLER_0_50_83
*6539 FILLER_0_50_85
*6540 FILLER_0_50_97
*6541 FILLER_0_51_105
*6542 FILLER_0_51_111
*6543 FILLER_0_51_113
*6544 FILLER_0_51_125
*6545 FILLER_0_51_137
*6546 FILLER_0_51_149
*6547 FILLER_0_51_15
*6548 FILLER_0_51_161
*6549 FILLER_0_51_167
*6550 FILLER_0_51_169
*6551 FILLER_0_51_181
*6552 FILLER_0_51_193
*6553 FILLER_0_51_205
*6554 FILLER_0_51_217
*6555 FILLER_0_51_223
*6556 FILLER_0_51_225
*6557 FILLER_0_51_237
*6558 FILLER_0_51_249
*6559 FILLER_0_51_261
*6560 FILLER_0_51_27
*6561 FILLER_0_51_273
*6562 FILLER_0_51_279
*6563 FILLER_0_51_281
*6564 FILLER_0_51_293
*6565 FILLER_0_51_3
*6566 FILLER_0_51_305
*6567 FILLER_0_51_317
*6568 FILLER_0_51_329
*6569 FILLER_0_51_335
*6570 FILLER_0_51_337
*6571 FILLER_0_51_349
*6572 FILLER_0_51_361
*6573 FILLER_0_51_373
*6574 FILLER_0_51_385
*6575 FILLER_0_51_39
*6576 FILLER_0_51_391
*6577 FILLER_0_51_393
*6578 FILLER_0_51_405
*6579 FILLER_0_51_417
*6580 FILLER_0_51_429
*6581 FILLER_0_51_441
*6582 FILLER_0_51_447
*6583 FILLER_0_51_449
*6584 FILLER_0_51_461
*6585 FILLER_0_51_473
*6586 FILLER_0_51_485
*6587 FILLER_0_51_497
*6588 FILLER_0_51_503
*6589 FILLER_0_51_505
*6590 FILLER_0_51_51
*6591 FILLER_0_51_517
*6592 FILLER_0_51_529
*6593 FILLER_0_51_541
*6594 FILLER_0_51_55
*6595 FILLER_0_51_553
*6596 FILLER_0_51_559
*6597 FILLER_0_51_561
*6598 FILLER_0_51_57
*6599 FILLER_0_51_573
*6600 FILLER_0_51_585
*6601 FILLER_0_51_597
*6602 FILLER_0_51_609
*6603 FILLER_0_51_615
*6604 FILLER_0_51_617
*6605 FILLER_0_51_629
*6606 FILLER_0_51_641
*6607 FILLER_0_51_653
*6608 FILLER_0_51_665
*6609 FILLER_0_51_671
*6610 FILLER_0_51_673
*6611 FILLER_0_51_685
*6612 FILLER_0_51_69
*6613 FILLER_0_51_697
*6614 FILLER_0_51_709
*6615 FILLER_0_51_721
*6616 FILLER_0_51_727
*6617 FILLER_0_51_729
*6618 FILLER_0_51_741
*6619 FILLER_0_51_753
*6620 FILLER_0_51_765
*6621 FILLER_0_51_777
*6622 FILLER_0_51_81
*6623 FILLER_0_51_93
*6624 FILLER_0_52_109
*6625 FILLER_0_52_121
*6626 FILLER_0_52_133
*6627 FILLER_0_52_139
*6628 FILLER_0_52_141
*6629 FILLER_0_52_15
*6630 FILLER_0_52_153
*6631 FILLER_0_52_165
*6632 FILLER_0_52_177
*6633 FILLER_0_52_189
*6634 FILLER_0_52_195
*6635 FILLER_0_52_197
*6636 FILLER_0_52_209
*6637 FILLER_0_52_221
*6638 FILLER_0_52_233
*6639 FILLER_0_52_245
*6640 FILLER_0_52_251
*6641 FILLER_0_52_253
*6642 FILLER_0_52_265
*6643 FILLER_0_52_27
*6644 FILLER_0_52_277
*6645 FILLER_0_52_289
*6646 FILLER_0_52_29
*6647 FILLER_0_52_3
*6648 FILLER_0_52_301
*6649 FILLER_0_52_307
*6650 FILLER_0_52_309
*6651 FILLER_0_52_321
*6652 FILLER_0_52_333
*6653 FILLER_0_52_345
*6654 FILLER_0_52_357
*6655 FILLER_0_52_363
*6656 FILLER_0_52_365
*6657 FILLER_0_52_377
*6658 FILLER_0_52_389
*6659 FILLER_0_52_401
*6660 FILLER_0_52_41
*6661 FILLER_0_52_413
*6662 FILLER_0_52_419
*6663 FILLER_0_52_421
*6664 FILLER_0_52_433
*6665 FILLER_0_52_445
*6666 FILLER_0_52_457
*6667 FILLER_0_52_469
*6668 FILLER_0_52_475
*6669 FILLER_0_52_477
*6670 FILLER_0_52_489
*6671 FILLER_0_52_501
*6672 FILLER_0_52_513
*6673 FILLER_0_52_525
*6674 FILLER_0_52_53
*6675 FILLER_0_52_531
*6676 FILLER_0_52_533
*6677 FILLER_0_52_545
*6678 FILLER_0_52_557
*6679 FILLER_0_52_569
*6680 FILLER_0_52_581
*6681 FILLER_0_52_587
*6682 FILLER_0_52_589
*6683 FILLER_0_52_601
*6684 FILLER_0_52_613
*6685 FILLER_0_52_625
*6686 FILLER_0_52_637
*6687 FILLER_0_52_643
*6688 FILLER_0_52_645
*6689 FILLER_0_52_65
*6690 FILLER_0_52_657
*6691 FILLER_0_52_669
*6692 FILLER_0_52_681
*6693 FILLER_0_52_693
*6694 FILLER_0_52_699
*6695 FILLER_0_52_701
*6696 FILLER_0_52_713
*6697 FILLER_0_52_725
*6698 FILLER_0_52_737
*6699 FILLER_0_52_749
*6700 FILLER_0_52_755
*6701 FILLER_0_52_757
*6702 FILLER_0_52_769
*6703 FILLER_0_52_77
*6704 FILLER_0_52_777
*6705 FILLER_0_52_83
*6706 FILLER_0_52_85
*6707 FILLER_0_52_97
*6708 FILLER_0_53_105
*6709 FILLER_0_53_111
*6710 FILLER_0_53_113
*6711 FILLER_0_53_125
*6712 FILLER_0_53_137
*6713 FILLER_0_53_149
*6714 FILLER_0_53_15
*6715 FILLER_0_53_161
*6716 FILLER_0_53_167
*6717 FILLER_0_53_169
*6718 FILLER_0_53_181
*6719 FILLER_0_53_193
*6720 FILLER_0_53_205
*6721 FILLER_0_53_217
*6722 FILLER_0_53_223
*6723 FILLER_0_53_225
*6724 FILLER_0_53_237
*6725 FILLER_0_53_249
*6726 FILLER_0_53_261
*6727 FILLER_0_53_27
*6728 FILLER_0_53_273
*6729 FILLER_0_53_279
*6730 FILLER_0_53_281
*6731 FILLER_0_53_293
*6732 FILLER_0_53_3
*6733 FILLER_0_53_305
*6734 FILLER_0_53_317
*6735 FILLER_0_53_329
*6736 FILLER_0_53_335
*6737 FILLER_0_53_337
*6738 FILLER_0_53_349
*6739 FILLER_0_53_361
*6740 FILLER_0_53_373
*6741 FILLER_0_53_385
*6742 FILLER_0_53_39
*6743 FILLER_0_53_391
*6744 FILLER_0_53_393
*6745 FILLER_0_53_405
*6746 FILLER_0_53_417
*6747 FILLER_0_53_429
*6748 FILLER_0_53_441
*6749 FILLER_0_53_447
*6750 FILLER_0_53_449
*6751 FILLER_0_53_461
*6752 FILLER_0_53_473
*6753 FILLER_0_53_485
*6754 FILLER_0_53_497
*6755 FILLER_0_53_503
*6756 FILLER_0_53_505
*6757 FILLER_0_53_51
*6758 FILLER_0_53_517
*6759 FILLER_0_53_529
*6760 FILLER_0_53_541
*6761 FILLER_0_53_55
*6762 FILLER_0_53_553
*6763 FILLER_0_53_559
*6764 FILLER_0_53_561
*6765 FILLER_0_53_57
*6766 FILLER_0_53_573
*6767 FILLER_0_53_585
*6768 FILLER_0_53_597
*6769 FILLER_0_53_609
*6770 FILLER_0_53_615
*6771 FILLER_0_53_617
*6772 FILLER_0_53_629
*6773 FILLER_0_53_641
*6774 FILLER_0_53_653
*6775 FILLER_0_53_665
*6776 FILLER_0_53_671
*6777 FILLER_0_53_673
*6778 FILLER_0_53_685
*6779 FILLER_0_53_69
*6780 FILLER_0_53_697
*6781 FILLER_0_53_709
*6782 FILLER_0_53_721
*6783 FILLER_0_53_727
*6784 FILLER_0_53_729
*6785 FILLER_0_53_741
*6786 FILLER_0_53_753
*6787 FILLER_0_53_765
*6788 FILLER_0_53_777
*6789 FILLER_0_53_81
*6790 FILLER_0_53_93
*6791 FILLER_0_54_109
*6792 FILLER_0_54_121
*6793 FILLER_0_54_133
*6794 FILLER_0_54_139
*6795 FILLER_0_54_141
*6796 FILLER_0_54_15
*6797 FILLER_0_54_153
*6798 FILLER_0_54_165
*6799 FILLER_0_54_177
*6800 FILLER_0_54_189
*6801 FILLER_0_54_195
*6802 FILLER_0_54_197
*6803 FILLER_0_54_209
*6804 FILLER_0_54_221
*6805 FILLER_0_54_233
*6806 FILLER_0_54_245
*6807 FILLER_0_54_251
*6808 FILLER_0_54_253
*6809 FILLER_0_54_265
*6810 FILLER_0_54_27
*6811 FILLER_0_54_277
*6812 FILLER_0_54_289
*6813 FILLER_0_54_29
*6814 FILLER_0_54_3
*6815 FILLER_0_54_301
*6816 FILLER_0_54_307
*6817 FILLER_0_54_309
*6818 FILLER_0_54_321
*6819 FILLER_0_54_333
*6820 FILLER_0_54_345
*6821 FILLER_0_54_357
*6822 FILLER_0_54_363
*6823 FILLER_0_54_365
*6824 FILLER_0_54_377
*6825 FILLER_0_54_389
*6826 FILLER_0_54_401
*6827 FILLER_0_54_41
*6828 FILLER_0_54_413
*6829 FILLER_0_54_419
*6830 FILLER_0_54_421
*6831 FILLER_0_54_433
*6832 FILLER_0_54_445
*6833 FILLER_0_54_457
*6834 FILLER_0_54_469
*6835 FILLER_0_54_475
*6836 FILLER_0_54_477
*6837 FILLER_0_54_489
*6838 FILLER_0_54_501
*6839 FILLER_0_54_513
*6840 FILLER_0_54_525
*6841 FILLER_0_54_53
*6842 FILLER_0_54_531
*6843 FILLER_0_54_533
*6844 FILLER_0_54_545
*6845 FILLER_0_54_557
*6846 FILLER_0_54_569
*6847 FILLER_0_54_581
*6848 FILLER_0_54_587
*6849 FILLER_0_54_589
*6850 FILLER_0_54_601
*6851 FILLER_0_54_613
*6852 FILLER_0_54_625
*6853 FILLER_0_54_637
*6854 FILLER_0_54_643
*6855 FILLER_0_54_645
*6856 FILLER_0_54_65
*6857 FILLER_0_54_657
*6858 FILLER_0_54_669
*6859 FILLER_0_54_681
*6860 FILLER_0_54_693
*6861 FILLER_0_54_699
*6862 FILLER_0_54_701
*6863 FILLER_0_54_713
*6864 FILLER_0_54_725
*6865 FILLER_0_54_737
*6866 FILLER_0_54_749
*6867 FILLER_0_54_755
*6868 FILLER_0_54_757
*6869 FILLER_0_54_769
*6870 FILLER_0_54_77
*6871 FILLER_0_54_777
*6872 FILLER_0_54_83
*6873 FILLER_0_54_85
*6874 FILLER_0_54_97
*6875 FILLER_0_55_105
*6876 FILLER_0_55_111
*6877 FILLER_0_55_113
*6878 FILLER_0_55_125
*6879 FILLER_0_55_137
*6880 FILLER_0_55_149
*6881 FILLER_0_55_15
*6882 FILLER_0_55_161
*6883 FILLER_0_55_167
*6884 FILLER_0_55_169
*6885 FILLER_0_55_181
*6886 FILLER_0_55_193
*6887 FILLER_0_55_205
*6888 FILLER_0_55_217
*6889 FILLER_0_55_223
*6890 FILLER_0_55_225
*6891 FILLER_0_55_237
*6892 FILLER_0_55_249
*6893 FILLER_0_55_261
*6894 FILLER_0_55_27
*6895 FILLER_0_55_273
*6896 FILLER_0_55_279
*6897 FILLER_0_55_281
*6898 FILLER_0_55_293
*6899 FILLER_0_55_3
*6900 FILLER_0_55_305
*6901 FILLER_0_55_317
*6902 FILLER_0_55_329
*6903 FILLER_0_55_335
*6904 FILLER_0_55_337
*6905 FILLER_0_55_349
*6906 FILLER_0_55_361
*6907 FILLER_0_55_373
*6908 FILLER_0_55_385
*6909 FILLER_0_55_39
*6910 FILLER_0_55_391
*6911 FILLER_0_55_393
*6912 FILLER_0_55_405
*6913 FILLER_0_55_417
*6914 FILLER_0_55_429
*6915 FILLER_0_55_441
*6916 FILLER_0_55_447
*6917 FILLER_0_55_449
*6918 FILLER_0_55_461
*6919 FILLER_0_55_473
*6920 FILLER_0_55_485
*6921 FILLER_0_55_497
*6922 FILLER_0_55_503
*6923 FILLER_0_55_505
*6924 FILLER_0_55_51
*6925 FILLER_0_55_517
*6926 FILLER_0_55_529
*6927 FILLER_0_55_541
*6928 FILLER_0_55_55
*6929 FILLER_0_55_553
*6930 FILLER_0_55_559
*6931 FILLER_0_55_561
*6932 FILLER_0_55_57
*6933 FILLER_0_55_573
*6934 FILLER_0_55_585
*6935 FILLER_0_55_597
*6936 FILLER_0_55_609
*6937 FILLER_0_55_615
*6938 FILLER_0_55_617
*6939 FILLER_0_55_629
*6940 FILLER_0_55_641
*6941 FILLER_0_55_653
*6942 FILLER_0_55_665
*6943 FILLER_0_55_671
*6944 FILLER_0_55_673
*6945 FILLER_0_55_685
*6946 FILLER_0_55_69
*6947 FILLER_0_55_697
*6948 FILLER_0_55_709
*6949 FILLER_0_55_721
*6950 FILLER_0_55_727
*6951 FILLER_0_55_729
*6952 FILLER_0_55_741
*6953 FILLER_0_55_753
*6954 FILLER_0_55_765
*6955 FILLER_0_55_777
*6956 FILLER_0_55_81
*6957 FILLER_0_55_93
*6958 FILLER_0_56_109
*6959 FILLER_0_56_121
*6960 FILLER_0_56_133
*6961 FILLER_0_56_139
*6962 FILLER_0_56_141
*6963 FILLER_0_56_15
*6964 FILLER_0_56_153
*6965 FILLER_0_56_165
*6966 FILLER_0_56_177
*6967 FILLER_0_56_189
*6968 FILLER_0_56_195
*6969 FILLER_0_56_197
*6970 FILLER_0_56_209
*6971 FILLER_0_56_221
*6972 FILLER_0_56_233
*6973 FILLER_0_56_245
*6974 FILLER_0_56_251
*6975 FILLER_0_56_253
*6976 FILLER_0_56_265
*6977 FILLER_0_56_27
*6978 FILLER_0_56_277
*6979 FILLER_0_56_289
*6980 FILLER_0_56_29
*6981 FILLER_0_56_3
*6982 FILLER_0_56_301
*6983 FILLER_0_56_307
*6984 FILLER_0_56_309
*6985 FILLER_0_56_321
*6986 FILLER_0_56_333
*6987 FILLER_0_56_345
*6988 FILLER_0_56_357
*6989 FILLER_0_56_363
*6990 FILLER_0_56_365
*6991 FILLER_0_56_377
*6992 FILLER_0_56_389
*6993 FILLER_0_56_401
*6994 FILLER_0_56_41
*6995 FILLER_0_56_413
*6996 FILLER_0_56_419
*6997 FILLER_0_56_421
*6998 FILLER_0_56_433
*6999 FILLER_0_56_445
*7000 FILLER_0_56_457
*7001 FILLER_0_56_469
*7002 FILLER_0_56_475
*7003 FILLER_0_56_477
*7004 FILLER_0_56_489
*7005 FILLER_0_56_501
*7006 FILLER_0_56_513
*7007 FILLER_0_56_525
*7008 FILLER_0_56_53
*7009 FILLER_0_56_531
*7010 FILLER_0_56_533
*7011 FILLER_0_56_545
*7012 FILLER_0_56_557
*7013 FILLER_0_56_569
*7014 FILLER_0_56_581
*7015 FILLER_0_56_587
*7016 FILLER_0_56_589
*7017 FILLER_0_56_601
*7018 FILLER_0_56_613
*7019 FILLER_0_56_625
*7020 FILLER_0_56_637
*7021 FILLER_0_56_643
*7022 FILLER_0_56_645
*7023 FILLER_0_56_65
*7024 FILLER_0_56_657
*7025 FILLER_0_56_669
*7026 FILLER_0_56_681
*7027 FILLER_0_56_693
*7028 FILLER_0_56_699
*7029 FILLER_0_56_701
*7030 FILLER_0_56_713
*7031 FILLER_0_56_725
*7032 FILLER_0_56_737
*7033 FILLER_0_56_749
*7034 FILLER_0_56_755
*7035 FILLER_0_56_757
*7036 FILLER_0_56_769
*7037 FILLER_0_56_77
*7038 FILLER_0_56_777
*7039 FILLER_0_56_83
*7040 FILLER_0_56_85
*7041 FILLER_0_56_97
*7042 FILLER_0_57_105
*7043 FILLER_0_57_111
*7044 FILLER_0_57_113
*7045 FILLER_0_57_125
*7046 FILLER_0_57_137
*7047 FILLER_0_57_149
*7048 FILLER_0_57_15
*7049 FILLER_0_57_161
*7050 FILLER_0_57_167
*7051 FILLER_0_57_169
*7052 FILLER_0_57_181
*7053 FILLER_0_57_193
*7054 FILLER_0_57_205
*7055 FILLER_0_57_217
*7056 FILLER_0_57_223
*7057 FILLER_0_57_225
*7058 FILLER_0_57_237
*7059 FILLER_0_57_249
*7060 FILLER_0_57_261
*7061 FILLER_0_57_27
*7062 FILLER_0_57_273
*7063 FILLER_0_57_279
*7064 FILLER_0_57_281
*7065 FILLER_0_57_293
*7066 FILLER_0_57_3
*7067 FILLER_0_57_305
*7068 FILLER_0_57_317
*7069 FILLER_0_57_329
*7070 FILLER_0_57_335
*7071 FILLER_0_57_337
*7072 FILLER_0_57_349
*7073 FILLER_0_57_361
*7074 FILLER_0_57_373
*7075 FILLER_0_57_385
*7076 FILLER_0_57_39
*7077 FILLER_0_57_391
*7078 FILLER_0_57_393
*7079 FILLER_0_57_405
*7080 FILLER_0_57_417
*7081 FILLER_0_57_429
*7082 FILLER_0_57_441
*7083 FILLER_0_57_447
*7084 FILLER_0_57_449
*7085 FILLER_0_57_461
*7086 FILLER_0_57_473
*7087 FILLER_0_57_485
*7088 FILLER_0_57_497
*7089 FILLER_0_57_503
*7090 FILLER_0_57_505
*7091 FILLER_0_57_51
*7092 FILLER_0_57_517
*7093 FILLER_0_57_529
*7094 FILLER_0_57_541
*7095 FILLER_0_57_55
*7096 FILLER_0_57_553
*7097 FILLER_0_57_559
*7098 FILLER_0_57_561
*7099 FILLER_0_57_57
*7100 FILLER_0_57_573
*7101 FILLER_0_57_585
*7102 FILLER_0_57_597
*7103 FILLER_0_57_609
*7104 FILLER_0_57_615
*7105 FILLER_0_57_617
*7106 FILLER_0_57_629
*7107 FILLER_0_57_641
*7108 FILLER_0_57_653
*7109 FILLER_0_57_665
*7110 FILLER_0_57_671
*7111 FILLER_0_57_673
*7112 FILLER_0_57_685
*7113 FILLER_0_57_69
*7114 FILLER_0_57_697
*7115 FILLER_0_57_709
*7116 FILLER_0_57_721
*7117 FILLER_0_57_727
*7118 FILLER_0_57_729
*7119 FILLER_0_57_741
*7120 FILLER_0_57_753
*7121 FILLER_0_57_765
*7122 FILLER_0_57_777
*7123 FILLER_0_57_81
*7124 FILLER_0_57_93
*7125 FILLER_0_58_109
*7126 FILLER_0_58_121
*7127 FILLER_0_58_133
*7128 FILLER_0_58_139
*7129 FILLER_0_58_141
*7130 FILLER_0_58_15
*7131 FILLER_0_58_153
*7132 FILLER_0_58_165
*7133 FILLER_0_58_177
*7134 FILLER_0_58_189
*7135 FILLER_0_58_195
*7136 FILLER_0_58_197
*7137 FILLER_0_58_209
*7138 FILLER_0_58_221
*7139 FILLER_0_58_233
*7140 FILLER_0_58_245
*7141 FILLER_0_58_251
*7142 FILLER_0_58_253
*7143 FILLER_0_58_265
*7144 FILLER_0_58_27
*7145 FILLER_0_58_277
*7146 FILLER_0_58_289
*7147 FILLER_0_58_29
*7148 FILLER_0_58_3
*7149 FILLER_0_58_301
*7150 FILLER_0_58_307
*7151 FILLER_0_58_309
*7152 FILLER_0_58_321
*7153 FILLER_0_58_333
*7154 FILLER_0_58_345
*7155 FILLER_0_58_357
*7156 FILLER_0_58_363
*7157 FILLER_0_58_365
*7158 FILLER_0_58_377
*7159 FILLER_0_58_389
*7160 FILLER_0_58_401
*7161 FILLER_0_58_41
*7162 FILLER_0_58_413
*7163 FILLER_0_58_419
*7164 FILLER_0_58_421
*7165 FILLER_0_58_433
*7166 FILLER_0_58_445
*7167 FILLER_0_58_457
*7168 FILLER_0_58_469
*7169 FILLER_0_58_475
*7170 FILLER_0_58_477
*7171 FILLER_0_58_489
*7172 FILLER_0_58_501
*7173 FILLER_0_58_513
*7174 FILLER_0_58_525
*7175 FILLER_0_58_53
*7176 FILLER_0_58_531
*7177 FILLER_0_58_533
*7178 FILLER_0_58_545
*7179 FILLER_0_58_557
*7180 FILLER_0_58_569
*7181 FILLER_0_58_581
*7182 FILLER_0_58_587
*7183 FILLER_0_58_589
*7184 FILLER_0_58_601
*7185 FILLER_0_58_613
*7186 FILLER_0_58_625
*7187 FILLER_0_58_637
*7188 FILLER_0_58_643
*7189 FILLER_0_58_645
*7190 FILLER_0_58_65
*7191 FILLER_0_58_657
*7192 FILLER_0_58_669
*7193 FILLER_0_58_681
*7194 FILLER_0_58_693
*7195 FILLER_0_58_699
*7196 FILLER_0_58_701
*7197 FILLER_0_58_713
*7198 FILLER_0_58_725
*7199 FILLER_0_58_737
*7200 FILLER_0_58_749
*7201 FILLER_0_58_755
*7202 FILLER_0_58_757
*7203 FILLER_0_58_769
*7204 FILLER_0_58_77
*7205 FILLER_0_58_777
*7206 FILLER_0_58_83
*7207 FILLER_0_58_85
*7208 FILLER_0_58_97
*7209 FILLER_0_59_105
*7210 FILLER_0_59_111
*7211 FILLER_0_59_113
*7212 FILLER_0_59_125
*7213 FILLER_0_59_137
*7214 FILLER_0_59_149
*7215 FILLER_0_59_15
*7216 FILLER_0_59_161
*7217 FILLER_0_59_167
*7218 FILLER_0_59_175
*7219 FILLER_0_59_181
*7220 FILLER_0_59_193
*7221 FILLER_0_59_205
*7222 FILLER_0_59_213
*7223 FILLER_0_59_217
*7224 FILLER_0_59_223
*7225 FILLER_0_59_225
*7226 FILLER_0_59_237
*7227 FILLER_0_59_249
*7228 FILLER_0_59_261
*7229 FILLER_0_59_27
*7230 FILLER_0_59_273
*7231 FILLER_0_59_279
*7232 FILLER_0_59_281
*7233 FILLER_0_59_293
*7234 FILLER_0_59_3
*7235 FILLER_0_59_305
*7236 FILLER_0_59_317
*7237 FILLER_0_59_329
*7238 FILLER_0_59_335
*7239 FILLER_0_59_337
*7240 FILLER_0_59_349
*7241 FILLER_0_59_361
*7242 FILLER_0_59_373
*7243 FILLER_0_59_385
*7244 FILLER_0_59_39
*7245 FILLER_0_59_391
*7246 FILLER_0_59_393
*7247 FILLER_0_59_405
*7248 FILLER_0_59_417
*7249 FILLER_0_59_429
*7250 FILLER_0_59_441
*7251 FILLER_0_59_447
*7252 FILLER_0_59_449
*7253 FILLER_0_59_461
*7254 FILLER_0_59_473
*7255 FILLER_0_59_485
*7256 FILLER_0_59_497
*7257 FILLER_0_59_503
*7258 FILLER_0_59_505
*7259 FILLER_0_59_51
*7260 FILLER_0_59_517
*7261 FILLER_0_59_529
*7262 FILLER_0_59_541
*7263 FILLER_0_59_55
*7264 FILLER_0_59_553
*7265 FILLER_0_59_559
*7266 FILLER_0_59_561
*7267 FILLER_0_59_57
*7268 FILLER_0_59_573
*7269 FILLER_0_59_585
*7270 FILLER_0_59_597
*7271 FILLER_0_59_609
*7272 FILLER_0_59_615
*7273 FILLER_0_59_617
*7274 FILLER_0_59_629
*7275 FILLER_0_59_641
*7276 FILLER_0_59_653
*7277 FILLER_0_59_665
*7278 FILLER_0_59_671
*7279 FILLER_0_59_673
*7280 FILLER_0_59_685
*7281 FILLER_0_59_69
*7282 FILLER_0_59_697
*7283 FILLER_0_59_709
*7284 FILLER_0_59_721
*7285 FILLER_0_59_727
*7286 FILLER_0_59_729
*7287 FILLER_0_59_741
*7288 FILLER_0_59_753
*7289 FILLER_0_59_765
*7290 FILLER_0_59_777
*7291 FILLER_0_59_81
*7292 FILLER_0_59_93
*7293 FILLER_0_5_105
*7294 FILLER_0_5_111
*7295 FILLER_0_5_113
*7296 FILLER_0_5_125
*7297 FILLER_0_5_137
*7298 FILLER_0_5_149
*7299 FILLER_0_5_15
*7300 FILLER_0_5_161
*7301 FILLER_0_5_167
*7302 FILLER_0_5_169
*7303 FILLER_0_5_181
*7304 FILLER_0_5_193
*7305 FILLER_0_5_205
*7306 FILLER_0_5_217
*7307 FILLER_0_5_223
*7308 FILLER_0_5_225
*7309 FILLER_0_5_237
*7310 FILLER_0_5_249
*7311 FILLER_0_5_261
*7312 FILLER_0_5_27
*7313 FILLER_0_5_273
*7314 FILLER_0_5_279
*7315 FILLER_0_5_281
*7316 FILLER_0_5_293
*7317 FILLER_0_5_3
*7318 FILLER_0_5_305
*7319 FILLER_0_5_317
*7320 FILLER_0_5_329
*7321 FILLER_0_5_335
*7322 FILLER_0_5_337
*7323 FILLER_0_5_349
*7324 FILLER_0_5_361
*7325 FILLER_0_5_373
*7326 FILLER_0_5_385
*7327 FILLER_0_5_39
*7328 FILLER_0_5_391
*7329 FILLER_0_5_393
*7330 FILLER_0_5_405
*7331 FILLER_0_5_417
*7332 FILLER_0_5_429
*7333 FILLER_0_5_441
*7334 FILLER_0_5_447
*7335 FILLER_0_5_449
*7336 FILLER_0_5_461
*7337 FILLER_0_5_473
*7338 FILLER_0_5_485
*7339 FILLER_0_5_497
*7340 FILLER_0_5_503
*7341 FILLER_0_5_505
*7342 FILLER_0_5_51
*7343 FILLER_0_5_517
*7344 FILLER_0_5_529
*7345 FILLER_0_5_541
*7346 FILLER_0_5_55
*7347 FILLER_0_5_553
*7348 FILLER_0_5_559
*7349 FILLER_0_5_561
*7350 FILLER_0_5_57
*7351 FILLER_0_5_573
*7352 FILLER_0_5_585
*7353 FILLER_0_5_597
*7354 FILLER_0_5_609
*7355 FILLER_0_5_615
*7356 FILLER_0_5_617
*7357 FILLER_0_5_629
*7358 FILLER_0_5_641
*7359 FILLER_0_5_653
*7360 FILLER_0_5_665
*7361 FILLER_0_5_671
*7362 FILLER_0_5_673
*7363 FILLER_0_5_685
*7364 FILLER_0_5_69
*7365 FILLER_0_5_697
*7366 FILLER_0_5_709
*7367 FILLER_0_5_721
*7368 FILLER_0_5_727
*7369 FILLER_0_5_729
*7370 FILLER_0_5_741
*7371 FILLER_0_5_753
*7372 FILLER_0_5_765
*7373 FILLER_0_5_777
*7374 FILLER_0_5_81
*7375 FILLER_0_5_93
*7376 FILLER_0_60_109
*7377 FILLER_0_60_121
*7378 FILLER_0_60_133
*7379 FILLER_0_60_139
*7380 FILLER_0_60_141
*7381 FILLER_0_60_15
*7382 FILLER_0_60_153
*7383 FILLER_0_60_165
*7384 FILLER_0_60_173
*7385 FILLER_0_60_183
*7386 FILLER_0_60_195
*7387 FILLER_0_60_202
*7388 FILLER_0_60_208
*7389 FILLER_0_60_226
*7390 FILLER_0_60_238
*7391 FILLER_0_60_250
*7392 FILLER_0_60_253
*7393 FILLER_0_60_265
*7394 FILLER_0_60_27
*7395 FILLER_0_60_277
*7396 FILLER_0_60_289
*7397 FILLER_0_60_29
*7398 FILLER_0_60_3
*7399 FILLER_0_60_301
*7400 FILLER_0_60_307
*7401 FILLER_0_60_309
*7402 FILLER_0_60_321
*7403 FILLER_0_60_333
*7404 FILLER_0_60_345
*7405 FILLER_0_60_357
*7406 FILLER_0_60_363
*7407 FILLER_0_60_365
*7408 FILLER_0_60_377
*7409 FILLER_0_60_389
*7410 FILLER_0_60_401
*7411 FILLER_0_60_41
*7412 FILLER_0_60_413
*7413 FILLER_0_60_419
*7414 FILLER_0_60_421
*7415 FILLER_0_60_433
*7416 FILLER_0_60_445
*7417 FILLER_0_60_457
*7418 FILLER_0_60_469
*7419 FILLER_0_60_475
*7420 FILLER_0_60_477
*7421 FILLER_0_60_489
*7422 FILLER_0_60_501
*7423 FILLER_0_60_513
*7424 FILLER_0_60_525
*7425 FILLER_0_60_53
*7426 FILLER_0_60_531
*7427 FILLER_0_60_533
*7428 FILLER_0_60_545
*7429 FILLER_0_60_557
*7430 FILLER_0_60_569
*7431 FILLER_0_60_581
*7432 FILLER_0_60_587
*7433 FILLER_0_60_589
*7434 FILLER_0_60_601
*7435 FILLER_0_60_613
*7436 FILLER_0_60_625
*7437 FILLER_0_60_637
*7438 FILLER_0_60_643
*7439 FILLER_0_60_645
*7440 FILLER_0_60_65
*7441 FILLER_0_60_657
*7442 FILLER_0_60_669
*7443 FILLER_0_60_681
*7444 FILLER_0_60_693
*7445 FILLER_0_60_699
*7446 FILLER_0_60_701
*7447 FILLER_0_60_713
*7448 FILLER_0_60_725
*7449 FILLER_0_60_737
*7450 FILLER_0_60_749
*7451 FILLER_0_60_755
*7452 FILLER_0_60_757
*7453 FILLER_0_60_769
*7454 FILLER_0_60_77
*7455 FILLER_0_60_777
*7456 FILLER_0_60_83
*7457 FILLER_0_60_85
*7458 FILLER_0_60_97
*7459 FILLER_0_61_105
*7460 FILLER_0_61_111
*7461 FILLER_0_61_113
*7462 FILLER_0_61_125
*7463 FILLER_0_61_137
*7464 FILLER_0_61_149
*7465 FILLER_0_61_15
*7466 FILLER_0_61_166
*7467 FILLER_0_61_169
*7468 FILLER_0_61_179
*7469 FILLER_0_61_205
*7470 FILLER_0_61_221
*7471 FILLER_0_61_225
*7472 FILLER_0_61_237
*7473 FILLER_0_61_249
*7474 FILLER_0_61_261
*7475 FILLER_0_61_27
*7476 FILLER_0_61_273
*7477 FILLER_0_61_279
*7478 FILLER_0_61_281
*7479 FILLER_0_61_293
*7480 FILLER_0_61_3
*7481 FILLER_0_61_305
*7482 FILLER_0_61_317
*7483 FILLER_0_61_329
*7484 FILLER_0_61_335
*7485 FILLER_0_61_337
*7486 FILLER_0_61_349
*7487 FILLER_0_61_361
*7488 FILLER_0_61_373
*7489 FILLER_0_61_385
*7490 FILLER_0_61_39
*7491 FILLER_0_61_391
*7492 FILLER_0_61_393
*7493 FILLER_0_61_405
*7494 FILLER_0_61_417
*7495 FILLER_0_61_429
*7496 FILLER_0_61_441
*7497 FILLER_0_61_447
*7498 FILLER_0_61_449
*7499 FILLER_0_61_461
*7500 FILLER_0_61_473
*7501 FILLER_0_61_485
*7502 FILLER_0_61_497
*7503 FILLER_0_61_503
*7504 FILLER_0_61_505
*7505 FILLER_0_61_51
*7506 FILLER_0_61_517
*7507 FILLER_0_61_529
*7508 FILLER_0_61_541
*7509 FILLER_0_61_55
*7510 FILLER_0_61_553
*7511 FILLER_0_61_559
*7512 FILLER_0_61_561
*7513 FILLER_0_61_57
*7514 FILLER_0_61_573
*7515 FILLER_0_61_585
*7516 FILLER_0_61_597
*7517 FILLER_0_61_609
*7518 FILLER_0_61_615
*7519 FILLER_0_61_617
*7520 FILLER_0_61_629
*7521 FILLER_0_61_641
*7522 FILLER_0_61_653
*7523 FILLER_0_61_665
*7524 FILLER_0_61_671
*7525 FILLER_0_61_673
*7526 FILLER_0_61_685
*7527 FILLER_0_61_69
*7528 FILLER_0_61_697
*7529 FILLER_0_61_709
*7530 FILLER_0_61_721
*7531 FILLER_0_61_727
*7532 FILLER_0_61_729
*7533 FILLER_0_61_741
*7534 FILLER_0_61_753
*7535 FILLER_0_61_765
*7536 FILLER_0_61_777
*7537 FILLER_0_61_81
*7538 FILLER_0_61_93
*7539 FILLER_0_62_109
*7540 FILLER_0_62_121
*7541 FILLER_0_62_133
*7542 FILLER_0_62_139
*7543 FILLER_0_62_141
*7544 FILLER_0_62_149
*7545 FILLER_0_62_15
*7546 FILLER_0_62_160
*7547 FILLER_0_62_172
*7548 FILLER_0_62_186
*7549 FILLER_0_62_194
*7550 FILLER_0_62_204
*7551 FILLER_0_62_214
*7552 FILLER_0_62_226
*7553 FILLER_0_62_238
*7554 FILLER_0_62_250
*7555 FILLER_0_62_253
*7556 FILLER_0_62_265
*7557 FILLER_0_62_27
*7558 FILLER_0_62_277
*7559 FILLER_0_62_289
*7560 FILLER_0_62_29
*7561 FILLER_0_62_3
*7562 FILLER_0_62_301
*7563 FILLER_0_62_307
*7564 FILLER_0_62_309
*7565 FILLER_0_62_321
*7566 FILLER_0_62_333
*7567 FILLER_0_62_345
*7568 FILLER_0_62_357
*7569 FILLER_0_62_363
*7570 FILLER_0_62_365
*7571 FILLER_0_62_377
*7572 FILLER_0_62_389
*7573 FILLER_0_62_401
*7574 FILLER_0_62_41
*7575 FILLER_0_62_413
*7576 FILLER_0_62_419
*7577 FILLER_0_62_421
*7578 FILLER_0_62_433
*7579 FILLER_0_62_445
*7580 FILLER_0_62_457
*7581 FILLER_0_62_469
*7582 FILLER_0_62_475
*7583 FILLER_0_62_477
*7584 FILLER_0_62_489
*7585 FILLER_0_62_501
*7586 FILLER_0_62_513
*7587 FILLER_0_62_525
*7588 FILLER_0_62_53
*7589 FILLER_0_62_531
*7590 FILLER_0_62_533
*7591 FILLER_0_62_545
*7592 FILLER_0_62_557
*7593 FILLER_0_62_569
*7594 FILLER_0_62_581
*7595 FILLER_0_62_587
*7596 FILLER_0_62_589
*7597 FILLER_0_62_601
*7598 FILLER_0_62_613
*7599 FILLER_0_62_625
*7600 FILLER_0_62_637
*7601 FILLER_0_62_643
*7602 FILLER_0_62_645
*7603 FILLER_0_62_65
*7604 FILLER_0_62_657
*7605 FILLER_0_62_669
*7606 FILLER_0_62_681
*7607 FILLER_0_62_693
*7608 FILLER_0_62_699
*7609 FILLER_0_62_701
*7610 FILLER_0_62_713
*7611 FILLER_0_62_725
*7612 FILLER_0_62_737
*7613 FILLER_0_62_749
*7614 FILLER_0_62_755
*7615 FILLER_0_62_757
*7616 FILLER_0_62_769
*7617 FILLER_0_62_77
*7618 FILLER_0_62_777
*7619 FILLER_0_62_83
*7620 FILLER_0_62_85
*7621 FILLER_0_62_97
*7622 FILLER_0_63_105
*7623 FILLER_0_63_111
*7624 FILLER_0_63_113
*7625 FILLER_0_63_125
*7626 FILLER_0_63_137
*7627 FILLER_0_63_149
*7628 FILLER_0_63_15
*7629 FILLER_0_63_162
*7630 FILLER_0_63_176
*7631 FILLER_0_63_188
*7632 FILLER_0_63_196
*7633 FILLER_0_63_206
*7634 FILLER_0_63_214
*7635 FILLER_0_63_222
*7636 FILLER_0_63_225
*7637 FILLER_0_63_237
*7638 FILLER_0_63_249
*7639 FILLER_0_63_261
*7640 FILLER_0_63_27
*7641 FILLER_0_63_273
*7642 FILLER_0_63_279
*7643 FILLER_0_63_281
*7644 FILLER_0_63_293
*7645 FILLER_0_63_3
*7646 FILLER_0_63_305
*7647 FILLER_0_63_317
*7648 FILLER_0_63_329
*7649 FILLER_0_63_335
*7650 FILLER_0_63_337
*7651 FILLER_0_63_349
*7652 FILLER_0_63_361
*7653 FILLER_0_63_373
*7654 FILLER_0_63_385
*7655 FILLER_0_63_39
*7656 FILLER_0_63_391
*7657 FILLER_0_63_393
*7658 FILLER_0_63_405
*7659 FILLER_0_63_417
*7660 FILLER_0_63_429
*7661 FILLER_0_63_441
*7662 FILLER_0_63_447
*7663 FILLER_0_63_449
*7664 FILLER_0_63_461
*7665 FILLER_0_63_473
*7666 FILLER_0_63_485
*7667 FILLER_0_63_497
*7668 FILLER_0_63_503
*7669 FILLER_0_63_505
*7670 FILLER_0_63_51
*7671 FILLER_0_63_517
*7672 FILLER_0_63_529
*7673 FILLER_0_63_541
*7674 FILLER_0_63_55
*7675 FILLER_0_63_553
*7676 FILLER_0_63_559
*7677 FILLER_0_63_561
*7678 FILLER_0_63_57
*7679 FILLER_0_63_573
*7680 FILLER_0_63_585
*7681 FILLER_0_63_597
*7682 FILLER_0_63_609
*7683 FILLER_0_63_615
*7684 FILLER_0_63_617
*7685 FILLER_0_63_629
*7686 FILLER_0_63_641
*7687 FILLER_0_63_653
*7688 FILLER_0_63_665
*7689 FILLER_0_63_671
*7690 FILLER_0_63_673
*7691 FILLER_0_63_685
*7692 FILLER_0_63_69
*7693 FILLER_0_63_697
*7694 FILLER_0_63_709
*7695 FILLER_0_63_721
*7696 FILLER_0_63_727
*7697 FILLER_0_63_729
*7698 FILLER_0_63_741
*7699 FILLER_0_63_753
*7700 FILLER_0_63_765
*7701 FILLER_0_63_81
*7702 FILLER_0_63_93
*7703 FILLER_0_64_109
*7704 FILLER_0_64_121
*7705 FILLER_0_64_133
*7706 FILLER_0_64_139
*7707 FILLER_0_64_141
*7708 FILLER_0_64_15
*7709 FILLER_0_64_153
*7710 FILLER_0_64_165
*7711 FILLER_0_64_177
*7712 FILLER_0_64_190
*7713 FILLER_0_64_205
*7714 FILLER_0_64_247
*7715 FILLER_0_64_251
*7716 FILLER_0_64_253
*7717 FILLER_0_64_265
*7718 FILLER_0_64_27
*7719 FILLER_0_64_277
*7720 FILLER_0_64_289
*7721 FILLER_0_64_29
*7722 FILLER_0_64_3
*7723 FILLER_0_64_301
*7724 FILLER_0_64_307
*7725 FILLER_0_64_309
*7726 FILLER_0_64_321
*7727 FILLER_0_64_333
*7728 FILLER_0_64_345
*7729 FILLER_0_64_357
*7730 FILLER_0_64_363
*7731 FILLER_0_64_365
*7732 FILLER_0_64_377
*7733 FILLER_0_64_389
*7734 FILLER_0_64_401
*7735 FILLER_0_64_41
*7736 FILLER_0_64_413
*7737 FILLER_0_64_419
*7738 FILLER_0_64_421
*7739 FILLER_0_64_433
*7740 FILLER_0_64_445
*7741 FILLER_0_64_457
*7742 FILLER_0_64_469
*7743 FILLER_0_64_475
*7744 FILLER_0_64_477
*7745 FILLER_0_64_489
*7746 FILLER_0_64_501
*7747 FILLER_0_64_513
*7748 FILLER_0_64_525
*7749 FILLER_0_64_53
*7750 FILLER_0_64_531
*7751 FILLER_0_64_533
*7752 FILLER_0_64_545
*7753 FILLER_0_64_557
*7754 FILLER_0_64_569
*7755 FILLER_0_64_581
*7756 FILLER_0_64_587
*7757 FILLER_0_64_589
*7758 FILLER_0_64_601
*7759 FILLER_0_64_613
*7760 FILLER_0_64_625
*7761 FILLER_0_64_637
*7762 FILLER_0_64_643
*7763 FILLER_0_64_645
*7764 FILLER_0_64_65
*7765 FILLER_0_64_657
*7766 FILLER_0_64_669
*7767 FILLER_0_64_681
*7768 FILLER_0_64_693
*7769 FILLER_0_64_699
*7770 FILLER_0_64_701
*7771 FILLER_0_64_713
*7772 FILLER_0_64_725
*7773 FILLER_0_64_737
*7774 FILLER_0_64_749
*7775 FILLER_0_64_755
*7776 FILLER_0_64_757
*7777 FILLER_0_64_769
*7778 FILLER_0_64_77
*7779 FILLER_0_64_777
*7780 FILLER_0_64_83
*7781 FILLER_0_64_85
*7782 FILLER_0_64_97
*7783 FILLER_0_65_105
*7784 FILLER_0_65_111
*7785 FILLER_0_65_113
*7786 FILLER_0_65_125
*7787 FILLER_0_65_137
*7788 FILLER_0_65_143
*7789 FILLER_0_65_15
*7790 FILLER_0_65_154
*7791 FILLER_0_65_166
*7792 FILLER_0_65_174
*7793 FILLER_0_65_186
*7794 FILLER_0_65_198
*7795 FILLER_0_65_210
*7796 FILLER_0_65_222
*7797 FILLER_0_65_234
*7798 FILLER_0_65_242
*7799 FILLER_0_65_246
*7800 FILLER_0_65_258
*7801 FILLER_0_65_27
*7802 FILLER_0_65_270
*7803 FILLER_0_65_278
*7804 FILLER_0_65_281
*7805 FILLER_0_65_293
*7806 FILLER_0_65_3
*7807 FILLER_0_65_305
*7808 FILLER_0_65_317
*7809 FILLER_0_65_329
*7810 FILLER_0_65_335
*7811 FILLER_0_65_337
*7812 FILLER_0_65_349
*7813 FILLER_0_65_361
*7814 FILLER_0_65_373
*7815 FILLER_0_65_385
*7816 FILLER_0_65_39
*7817 FILLER_0_65_391
*7818 FILLER_0_65_393
*7819 FILLER_0_65_405
*7820 FILLER_0_65_417
*7821 FILLER_0_65_429
*7822 FILLER_0_65_441
*7823 FILLER_0_65_447
*7824 FILLER_0_65_449
*7825 FILLER_0_65_461
*7826 FILLER_0_65_473
*7827 FILLER_0_65_485
*7828 FILLER_0_65_497
*7829 FILLER_0_65_503
*7830 FILLER_0_65_505
*7831 FILLER_0_65_51
*7832 FILLER_0_65_517
*7833 FILLER_0_65_529
*7834 FILLER_0_65_541
*7835 FILLER_0_65_55
*7836 FILLER_0_65_553
*7837 FILLER_0_65_559
*7838 FILLER_0_65_561
*7839 FILLER_0_65_57
*7840 FILLER_0_65_573
*7841 FILLER_0_65_585
*7842 FILLER_0_65_597
*7843 FILLER_0_65_609
*7844 FILLER_0_65_615
*7845 FILLER_0_65_617
*7846 FILLER_0_65_629
*7847 FILLER_0_65_641
*7848 FILLER_0_65_653
*7849 FILLER_0_65_665
*7850 FILLER_0_65_671
*7851 FILLER_0_65_673
*7852 FILLER_0_65_685
*7853 FILLER_0_65_69
*7854 FILLER_0_65_697
*7855 FILLER_0_65_709
*7856 FILLER_0_65_721
*7857 FILLER_0_65_727
*7858 FILLER_0_65_729
*7859 FILLER_0_65_741
*7860 FILLER_0_65_753
*7861 FILLER_0_65_765
*7862 FILLER_0_65_777
*7863 FILLER_0_65_81
*7864 FILLER_0_65_93
*7865 FILLER_0_66_109
*7866 FILLER_0_66_121
*7867 FILLER_0_66_133
*7868 FILLER_0_66_139
*7869 FILLER_0_66_15
*7870 FILLER_0_66_154
*7871 FILLER_0_66_163
*7872 FILLER_0_66_184
*7873 FILLER_0_66_197
*7874 FILLER_0_66_203
*7875 FILLER_0_66_214
*7876 FILLER_0_66_222
*7877 FILLER_0_66_250
*7878 FILLER_0_66_253
*7879 FILLER_0_66_265
*7880 FILLER_0_66_27
*7881 FILLER_0_66_277
*7882 FILLER_0_66_289
*7883 FILLER_0_66_29
*7884 FILLER_0_66_3
*7885 FILLER_0_66_301
*7886 FILLER_0_66_307
*7887 FILLER_0_66_309
*7888 FILLER_0_66_321
*7889 FILLER_0_66_333
*7890 FILLER_0_66_345
*7891 FILLER_0_66_357
*7892 FILLER_0_66_363
*7893 FILLER_0_66_365
*7894 FILLER_0_66_377
*7895 FILLER_0_66_389
*7896 FILLER_0_66_401
*7897 FILLER_0_66_41
*7898 FILLER_0_66_413
*7899 FILLER_0_66_419
*7900 FILLER_0_66_421
*7901 FILLER_0_66_433
*7902 FILLER_0_66_445
*7903 FILLER_0_66_457
*7904 FILLER_0_66_469
*7905 FILLER_0_66_475
*7906 FILLER_0_66_477
*7907 FILLER_0_66_489
*7908 FILLER_0_66_501
*7909 FILLER_0_66_513
*7910 FILLER_0_66_525
*7911 FILLER_0_66_53
*7912 FILLER_0_66_531
*7913 FILLER_0_66_533
*7914 FILLER_0_66_545
*7915 FILLER_0_66_557
*7916 FILLER_0_66_569
*7917 FILLER_0_66_581
*7918 FILLER_0_66_587
*7919 FILLER_0_66_589
*7920 FILLER_0_66_601
*7921 FILLER_0_66_613
*7922 FILLER_0_66_625
*7923 FILLER_0_66_637
*7924 FILLER_0_66_643
*7925 FILLER_0_66_645
*7926 FILLER_0_66_65
*7927 FILLER_0_66_657
*7928 FILLER_0_66_669
*7929 FILLER_0_66_681
*7930 FILLER_0_66_693
*7931 FILLER_0_66_699
*7932 FILLER_0_66_701
*7933 FILLER_0_66_713
*7934 FILLER_0_66_725
*7935 FILLER_0_66_737
*7936 FILLER_0_66_749
*7937 FILLER_0_66_755
*7938 FILLER_0_66_757
*7939 FILLER_0_66_769
*7940 FILLER_0_66_77
*7941 FILLER_0_66_777
*7942 FILLER_0_66_83
*7943 FILLER_0_66_85
*7944 FILLER_0_66_97
*7945 FILLER_0_67_105
*7946 FILLER_0_67_111
*7947 FILLER_0_67_113
*7948 FILLER_0_67_125
*7949 FILLER_0_67_137
*7950 FILLER_0_67_149
*7951 FILLER_0_67_161
*7952 FILLER_0_67_167
*7953 FILLER_0_67_169
*7954 FILLER_0_67_175
*7955 FILLER_0_67_183
*7956 FILLER_0_67_193
*7957 FILLER_0_67_21
*7958 FILLER_0_67_210
*7959 FILLER_0_67_219
*7960 FILLER_0_67_223
*7961 FILLER_0_67_235
*7962 FILLER_0_67_247
*7963 FILLER_0_67_259
*7964 FILLER_0_67_271
*7965 FILLER_0_67_279
*7966 FILLER_0_67_281
*7967 FILLER_0_67_293
*7968 FILLER_0_67_305
*7969 FILLER_0_67_317
*7970 FILLER_0_67_329
*7971 FILLER_0_67_33
*7972 FILLER_0_67_335
*7973 FILLER_0_67_337
*7974 FILLER_0_67_349
*7975 FILLER_0_67_361
*7976 FILLER_0_67_373
*7977 FILLER_0_67_385
*7978 FILLER_0_67_391
*7979 FILLER_0_67_393
*7980 FILLER_0_67_405
*7981 FILLER_0_67_417
*7982 FILLER_0_67_429
*7983 FILLER_0_67_441
*7984 FILLER_0_67_447
*7985 FILLER_0_67_449
*7986 FILLER_0_67_45
*7987 FILLER_0_67_461
*7988 FILLER_0_67_473
*7989 FILLER_0_67_485
*7990 FILLER_0_67_497
*7991 FILLER_0_67_503
*7992 FILLER_0_67_505
*7993 FILLER_0_67_517
*7994 FILLER_0_67_529
*7995 FILLER_0_67_53
*7996 FILLER_0_67_541
*7997 FILLER_0_67_553
*7998 FILLER_0_67_559
*7999 FILLER_0_67_561
*8000 FILLER_0_67_57
*8001 FILLER_0_67_573
*8002 FILLER_0_67_585
*8003 FILLER_0_67_597
*8004 FILLER_0_67_609
*8005 FILLER_0_67_615
*8006 FILLER_0_67_617
*8007 FILLER_0_67_629
*8008 FILLER_0_67_641
*8009 FILLER_0_67_653
*8010 FILLER_0_67_665
*8011 FILLER_0_67_671
*8012 FILLER_0_67_673
*8013 FILLER_0_67_685
*8014 FILLER_0_67_69
*8015 FILLER_0_67_697
*8016 FILLER_0_67_709
*8017 FILLER_0_67_721
*8018 FILLER_0_67_727
*8019 FILLER_0_67_729
*8020 FILLER_0_67_741
*8021 FILLER_0_67_753
*8022 FILLER_0_67_765
*8023 FILLER_0_67_777
*8024 FILLER_0_67_81
*8025 FILLER_0_67_9
*8026 FILLER_0_67_93
*8027 FILLER_0_68_109
*8028 FILLER_0_68_121
*8029 FILLER_0_68_133
*8030 FILLER_0_68_139
*8031 FILLER_0_68_141
*8032 FILLER_0_68_15
*8033 FILLER_0_68_152
*8034 FILLER_0_68_164
*8035 FILLER_0_68_176
*8036 FILLER_0_68_182
*8037 FILLER_0_68_186
*8038 FILLER_0_68_194
*8039 FILLER_0_68_197
*8040 FILLER_0_68_209
*8041 FILLER_0_68_250
*8042 FILLER_0_68_253
*8043 FILLER_0_68_265
*8044 FILLER_0_68_27
*8045 FILLER_0_68_277
*8046 FILLER_0_68_289
*8047 FILLER_0_68_29
*8048 FILLER_0_68_3
*8049 FILLER_0_68_301
*8050 FILLER_0_68_307
*8051 FILLER_0_68_309
*8052 FILLER_0_68_321
*8053 FILLER_0_68_333
*8054 FILLER_0_68_345
*8055 FILLER_0_68_357
*8056 FILLER_0_68_363
*8057 FILLER_0_68_365
*8058 FILLER_0_68_377
*8059 FILLER_0_68_389
*8060 FILLER_0_68_401
*8061 FILLER_0_68_41
*8062 FILLER_0_68_413
*8063 FILLER_0_68_419
*8064 FILLER_0_68_421
*8065 FILLER_0_68_433
*8066 FILLER_0_68_445
*8067 FILLER_0_68_457
*8068 FILLER_0_68_469
*8069 FILLER_0_68_475
*8070 FILLER_0_68_477
*8071 FILLER_0_68_489
*8072 FILLER_0_68_501
*8073 FILLER_0_68_513
*8074 FILLER_0_68_525
*8075 FILLER_0_68_53
*8076 FILLER_0_68_531
*8077 FILLER_0_68_533
*8078 FILLER_0_68_545
*8079 FILLER_0_68_557
*8080 FILLER_0_68_569
*8081 FILLER_0_68_581
*8082 FILLER_0_68_587
*8083 FILLER_0_68_589
*8084 FILLER_0_68_601
*8085 FILLER_0_68_613
*8086 FILLER_0_68_625
*8087 FILLER_0_68_637
*8088 FILLER_0_68_643
*8089 FILLER_0_68_645
*8090 FILLER_0_68_65
*8091 FILLER_0_68_657
*8092 FILLER_0_68_669
*8093 FILLER_0_68_681
*8094 FILLER_0_68_693
*8095 FILLER_0_68_699
*8096 FILLER_0_68_701
*8097 FILLER_0_68_713
*8098 FILLER_0_68_725
*8099 FILLER_0_68_737
*8100 FILLER_0_68_749
*8101 FILLER_0_68_755
*8102 FILLER_0_68_757
*8103 FILLER_0_68_769
*8104 FILLER_0_68_77
*8105 FILLER_0_68_777
*8106 FILLER_0_68_83
*8107 FILLER_0_68_85
*8108 FILLER_0_68_97
*8109 FILLER_0_69_105
*8110 FILLER_0_69_111
*8111 FILLER_0_69_113
*8112 FILLER_0_69_125
*8113 FILLER_0_69_137
*8114 FILLER_0_69_148
*8115 FILLER_0_69_15
*8116 FILLER_0_69_154
*8117 FILLER_0_69_158
*8118 FILLER_0_69_167
*8119 FILLER_0_69_169
*8120 FILLER_0_69_185
*8121 FILLER_0_69_199
*8122 FILLER_0_69_211
*8123 FILLER_0_69_223
*8124 FILLER_0_69_225
*8125 FILLER_0_69_233
*8126 FILLER_0_69_257
*8127 FILLER_0_69_269
*8128 FILLER_0_69_27
*8129 FILLER_0_69_277
*8130 FILLER_0_69_281
*8131 FILLER_0_69_293
*8132 FILLER_0_69_3
*8133 FILLER_0_69_305
*8134 FILLER_0_69_317
*8135 FILLER_0_69_329
*8136 FILLER_0_69_335
*8137 FILLER_0_69_337
*8138 FILLER_0_69_349
*8139 FILLER_0_69_361
*8140 FILLER_0_69_373
*8141 FILLER_0_69_385
*8142 FILLER_0_69_39
*8143 FILLER_0_69_391
*8144 FILLER_0_69_393
*8145 FILLER_0_69_405
*8146 FILLER_0_69_417
*8147 FILLER_0_69_429
*8148 FILLER_0_69_441
*8149 FILLER_0_69_447
*8150 FILLER_0_69_449
*8151 FILLER_0_69_461
*8152 FILLER_0_69_473
*8153 FILLER_0_69_485
*8154 FILLER_0_69_497
*8155 FILLER_0_69_503
*8156 FILLER_0_69_505
*8157 FILLER_0_69_51
*8158 FILLER_0_69_517
*8159 FILLER_0_69_529
*8160 FILLER_0_69_541
*8161 FILLER_0_69_55
*8162 FILLER_0_69_553
*8163 FILLER_0_69_559
*8164 FILLER_0_69_561
*8165 FILLER_0_69_57
*8166 FILLER_0_69_573
*8167 FILLER_0_69_585
*8168 FILLER_0_69_597
*8169 FILLER_0_69_609
*8170 FILLER_0_69_615
*8171 FILLER_0_69_617
*8172 FILLER_0_69_629
*8173 FILLER_0_69_641
*8174 FILLER_0_69_653
*8175 FILLER_0_69_665
*8176 FILLER_0_69_671
*8177 FILLER_0_69_673
*8178 FILLER_0_69_685
*8179 FILLER_0_69_69
*8180 FILLER_0_69_697
*8181 FILLER_0_69_709
*8182 FILLER_0_69_721
*8183 FILLER_0_69_727
*8184 FILLER_0_69_729
*8185 FILLER_0_69_741
*8186 FILLER_0_69_753
*8187 FILLER_0_69_765
*8188 FILLER_0_69_777
*8189 FILLER_0_69_81
*8190 FILLER_0_69_93
*8191 FILLER_0_6_109
*8192 FILLER_0_6_121
*8193 FILLER_0_6_133
*8194 FILLER_0_6_139
*8195 FILLER_0_6_141
*8196 FILLER_0_6_15
*8197 FILLER_0_6_153
*8198 FILLER_0_6_165
*8199 FILLER_0_6_177
*8200 FILLER_0_6_189
*8201 FILLER_0_6_195
*8202 FILLER_0_6_197
*8203 FILLER_0_6_209
*8204 FILLER_0_6_221
*8205 FILLER_0_6_233
*8206 FILLER_0_6_245
*8207 FILLER_0_6_251
*8208 FILLER_0_6_253
*8209 FILLER_0_6_265
*8210 FILLER_0_6_27
*8211 FILLER_0_6_277
*8212 FILLER_0_6_289
*8213 FILLER_0_6_29
*8214 FILLER_0_6_3
*8215 FILLER_0_6_301
*8216 FILLER_0_6_307
*8217 FILLER_0_6_309
*8218 FILLER_0_6_321
*8219 FILLER_0_6_333
*8220 FILLER_0_6_345
*8221 FILLER_0_6_357
*8222 FILLER_0_6_363
*8223 FILLER_0_6_365
*8224 FILLER_0_6_377
*8225 FILLER_0_6_389
*8226 FILLER_0_6_401
*8227 FILLER_0_6_41
*8228 FILLER_0_6_413
*8229 FILLER_0_6_419
*8230 FILLER_0_6_421
*8231 FILLER_0_6_433
*8232 FILLER_0_6_445
*8233 FILLER_0_6_457
*8234 FILLER_0_6_469
*8235 FILLER_0_6_475
*8236 FILLER_0_6_477
*8237 FILLER_0_6_489
*8238 FILLER_0_6_501
*8239 FILLER_0_6_513
*8240 FILLER_0_6_525
*8241 FILLER_0_6_53
*8242 FILLER_0_6_531
*8243 FILLER_0_6_533
*8244 FILLER_0_6_545
*8245 FILLER_0_6_557
*8246 FILLER_0_6_569
*8247 FILLER_0_6_581
*8248 FILLER_0_6_587
*8249 FILLER_0_6_589
*8250 FILLER_0_6_601
*8251 FILLER_0_6_613
*8252 FILLER_0_6_625
*8253 FILLER_0_6_637
*8254 FILLER_0_6_643
*8255 FILLER_0_6_645
*8256 FILLER_0_6_65
*8257 FILLER_0_6_657
*8258 FILLER_0_6_669
*8259 FILLER_0_6_681
*8260 FILLER_0_6_693
*8261 FILLER_0_6_699
*8262 FILLER_0_6_701
*8263 FILLER_0_6_713
*8264 FILLER_0_6_725
*8265 FILLER_0_6_737
*8266 FILLER_0_6_749
*8267 FILLER_0_6_755
*8268 FILLER_0_6_757
*8269 FILLER_0_6_769
*8270 FILLER_0_6_77
*8271 FILLER_0_6_777
*8272 FILLER_0_6_83
*8273 FILLER_0_6_85
*8274 FILLER_0_6_97
*8275 FILLER_0_70_109
*8276 FILLER_0_70_121
*8277 FILLER_0_70_133
*8278 FILLER_0_70_139
*8279 FILLER_0_70_141
*8280 FILLER_0_70_15
*8281 FILLER_0_70_153
*8282 FILLER_0_70_165
*8283 FILLER_0_70_173
*8284 FILLER_0_70_182
*8285 FILLER_0_70_193
*8286 FILLER_0_70_197
*8287 FILLER_0_70_201
*8288 FILLER_0_70_220
*8289 FILLER_0_70_233
*8290 FILLER_0_70_242
*8291 FILLER_0_70_250
*8292 FILLER_0_70_253
*8293 FILLER_0_70_265
*8294 FILLER_0_70_27
*8295 FILLER_0_70_277
*8296 FILLER_0_70_289
*8297 FILLER_0_70_29
*8298 FILLER_0_70_3
*8299 FILLER_0_70_301
*8300 FILLER_0_70_307
*8301 FILLER_0_70_309
*8302 FILLER_0_70_321
*8303 FILLER_0_70_333
*8304 FILLER_0_70_345
*8305 FILLER_0_70_357
*8306 FILLER_0_70_363
*8307 FILLER_0_70_365
*8308 FILLER_0_70_377
*8309 FILLER_0_70_389
*8310 FILLER_0_70_401
*8311 FILLER_0_70_41
*8312 FILLER_0_70_413
*8313 FILLER_0_70_419
*8314 FILLER_0_70_421
*8315 FILLER_0_70_433
*8316 FILLER_0_70_445
*8317 FILLER_0_70_457
*8318 FILLER_0_70_469
*8319 FILLER_0_70_475
*8320 FILLER_0_70_477
*8321 FILLER_0_70_489
*8322 FILLER_0_70_501
*8323 FILLER_0_70_513
*8324 FILLER_0_70_525
*8325 FILLER_0_70_53
*8326 FILLER_0_70_531
*8327 FILLER_0_70_533
*8328 FILLER_0_70_545
*8329 FILLER_0_70_557
*8330 FILLER_0_70_569
*8331 FILLER_0_70_581
*8332 FILLER_0_70_587
*8333 FILLER_0_70_589
*8334 FILLER_0_70_601
*8335 FILLER_0_70_613
*8336 FILLER_0_70_625
*8337 FILLER_0_70_637
*8338 FILLER_0_70_643
*8339 FILLER_0_70_645
*8340 FILLER_0_70_65
*8341 FILLER_0_70_657
*8342 FILLER_0_70_669
*8343 FILLER_0_70_681
*8344 FILLER_0_70_693
*8345 FILLER_0_70_699
*8346 FILLER_0_70_701
*8347 FILLER_0_70_713
*8348 FILLER_0_70_725
*8349 FILLER_0_70_737
*8350 FILLER_0_70_749
*8351 FILLER_0_70_755
*8352 FILLER_0_70_757
*8353 FILLER_0_70_769
*8354 FILLER_0_70_77
*8355 FILLER_0_70_777
*8356 FILLER_0_70_83
*8357 FILLER_0_70_85
*8358 FILLER_0_70_97
*8359 FILLER_0_71_105
*8360 FILLER_0_71_111
*8361 FILLER_0_71_113
*8362 FILLER_0_71_125
*8363 FILLER_0_71_137
*8364 FILLER_0_71_149
*8365 FILLER_0_71_15
*8366 FILLER_0_71_161
*8367 FILLER_0_71_167
*8368 FILLER_0_71_169
*8369 FILLER_0_71_181
*8370 FILLER_0_71_187
*8371 FILLER_0_71_199
*8372 FILLER_0_71_211
*8373 FILLER_0_71_215
*8374 FILLER_0_71_219
*8375 FILLER_0_71_223
*8376 FILLER_0_71_248
*8377 FILLER_0_71_260
*8378 FILLER_0_71_27
*8379 FILLER_0_71_272
*8380 FILLER_0_71_281
*8381 FILLER_0_71_293
*8382 FILLER_0_71_3
*8383 FILLER_0_71_305
*8384 FILLER_0_71_317
*8385 FILLER_0_71_329
*8386 FILLER_0_71_335
*8387 FILLER_0_71_337
*8388 FILLER_0_71_349
*8389 FILLER_0_71_361
*8390 FILLER_0_71_373
*8391 FILLER_0_71_385
*8392 FILLER_0_71_39
*8393 FILLER_0_71_391
*8394 FILLER_0_71_393
*8395 FILLER_0_71_405
*8396 FILLER_0_71_417
*8397 FILLER_0_71_429
*8398 FILLER_0_71_441
*8399 FILLER_0_71_447
*8400 FILLER_0_71_449
*8401 FILLER_0_71_461
*8402 FILLER_0_71_473
*8403 FILLER_0_71_485
*8404 FILLER_0_71_497
*8405 FILLER_0_71_503
*8406 FILLER_0_71_505
*8407 FILLER_0_71_51
*8408 FILLER_0_71_517
*8409 FILLER_0_71_529
*8410 FILLER_0_71_541
*8411 FILLER_0_71_55
*8412 FILLER_0_71_553
*8413 FILLER_0_71_559
*8414 FILLER_0_71_561
*8415 FILLER_0_71_57
*8416 FILLER_0_71_573
*8417 FILLER_0_71_585
*8418 FILLER_0_71_597
*8419 FILLER_0_71_609
*8420 FILLER_0_71_615
*8421 FILLER_0_71_617
*8422 FILLER_0_71_629
*8423 FILLER_0_71_641
*8424 FILLER_0_71_653
*8425 FILLER_0_71_665
*8426 FILLER_0_71_671
*8427 FILLER_0_71_673
*8428 FILLER_0_71_685
*8429 FILLER_0_71_69
*8430 FILLER_0_71_697
*8431 FILLER_0_71_709
*8432 FILLER_0_71_721
*8433 FILLER_0_71_727
*8434 FILLER_0_71_729
*8435 FILLER_0_71_741
*8436 FILLER_0_71_753
*8437 FILLER_0_71_765
*8438 FILLER_0_71_777
*8439 FILLER_0_71_81
*8440 FILLER_0_71_93
*8441 FILLER_0_72_109
*8442 FILLER_0_72_121
*8443 FILLER_0_72_133
*8444 FILLER_0_72_139
*8445 FILLER_0_72_141
*8446 FILLER_0_72_15
*8447 FILLER_0_72_153
*8448 FILLER_0_72_165
*8449 FILLER_0_72_177
*8450 FILLER_0_72_189
*8451 FILLER_0_72_195
*8452 FILLER_0_72_197
*8453 FILLER_0_72_209
*8454 FILLER_0_72_221
*8455 FILLER_0_72_233
*8456 FILLER_0_72_245
*8457 FILLER_0_72_251
*8458 FILLER_0_72_253
*8459 FILLER_0_72_265
*8460 FILLER_0_72_27
*8461 FILLER_0_72_277
*8462 FILLER_0_72_289
*8463 FILLER_0_72_29
*8464 FILLER_0_72_3
*8465 FILLER_0_72_301
*8466 FILLER_0_72_307
*8467 FILLER_0_72_309
*8468 FILLER_0_72_321
*8469 FILLER_0_72_333
*8470 FILLER_0_72_345
*8471 FILLER_0_72_357
*8472 FILLER_0_72_363
*8473 FILLER_0_72_365
*8474 FILLER_0_72_377
*8475 FILLER_0_72_389
*8476 FILLER_0_72_401
*8477 FILLER_0_72_41
*8478 FILLER_0_72_413
*8479 FILLER_0_72_419
*8480 FILLER_0_72_421
*8481 FILLER_0_72_433
*8482 FILLER_0_72_445
*8483 FILLER_0_72_457
*8484 FILLER_0_72_469
*8485 FILLER_0_72_475
*8486 FILLER_0_72_477
*8487 FILLER_0_72_489
*8488 FILLER_0_72_501
*8489 FILLER_0_72_513
*8490 FILLER_0_72_525
*8491 FILLER_0_72_53
*8492 FILLER_0_72_531
*8493 FILLER_0_72_533
*8494 FILLER_0_72_545
*8495 FILLER_0_72_557
*8496 FILLER_0_72_569
*8497 FILLER_0_72_581
*8498 FILLER_0_72_587
*8499 FILLER_0_72_589
*8500 FILLER_0_72_601
*8501 FILLER_0_72_613
*8502 FILLER_0_72_625
*8503 FILLER_0_72_637
*8504 FILLER_0_72_643
*8505 FILLER_0_72_645
*8506 FILLER_0_72_65
*8507 FILLER_0_72_657
*8508 FILLER_0_72_669
*8509 FILLER_0_72_681
*8510 FILLER_0_72_693
*8511 FILLER_0_72_699
*8512 FILLER_0_72_701
*8513 FILLER_0_72_713
*8514 FILLER_0_72_725
*8515 FILLER_0_72_737
*8516 FILLER_0_72_749
*8517 FILLER_0_72_755
*8518 FILLER_0_72_757
*8519 FILLER_0_72_769
*8520 FILLER_0_72_77
*8521 FILLER_0_72_777
*8522 FILLER_0_72_83
*8523 FILLER_0_72_85
*8524 FILLER_0_72_97
*8525 FILLER_0_73_105
*8526 FILLER_0_73_111
*8527 FILLER_0_73_113
*8528 FILLER_0_73_125
*8529 FILLER_0_73_137
*8530 FILLER_0_73_149
*8531 FILLER_0_73_15
*8532 FILLER_0_73_161
*8533 FILLER_0_73_167
*8534 FILLER_0_73_169
*8535 FILLER_0_73_181
*8536 FILLER_0_73_193
*8537 FILLER_0_73_205
*8538 FILLER_0_73_217
*8539 FILLER_0_73_223
*8540 FILLER_0_73_225
*8541 FILLER_0_73_237
*8542 FILLER_0_73_249
*8543 FILLER_0_73_261
*8544 FILLER_0_73_27
*8545 FILLER_0_73_273
*8546 FILLER_0_73_279
*8547 FILLER_0_73_281
*8548 FILLER_0_73_293
*8549 FILLER_0_73_3
*8550 FILLER_0_73_305
*8551 FILLER_0_73_317
*8552 FILLER_0_73_329
*8553 FILLER_0_73_335
*8554 FILLER_0_73_337
*8555 FILLER_0_73_349
*8556 FILLER_0_73_361
*8557 FILLER_0_73_373
*8558 FILLER_0_73_385
*8559 FILLER_0_73_39
*8560 FILLER_0_73_391
*8561 FILLER_0_73_393
*8562 FILLER_0_73_405
*8563 FILLER_0_73_417
*8564 FILLER_0_73_429
*8565 FILLER_0_73_441
*8566 FILLER_0_73_447
*8567 FILLER_0_73_449
*8568 FILLER_0_73_461
*8569 FILLER_0_73_473
*8570 FILLER_0_73_485
*8571 FILLER_0_73_497
*8572 FILLER_0_73_503
*8573 FILLER_0_73_505
*8574 FILLER_0_73_51
*8575 FILLER_0_73_517
*8576 FILLER_0_73_529
*8577 FILLER_0_73_541
*8578 FILLER_0_73_55
*8579 FILLER_0_73_553
*8580 FILLER_0_73_559
*8581 FILLER_0_73_561
*8582 FILLER_0_73_57
*8583 FILLER_0_73_573
*8584 FILLER_0_73_585
*8585 FILLER_0_73_597
*8586 FILLER_0_73_609
*8587 FILLER_0_73_615
*8588 FILLER_0_73_617
*8589 FILLER_0_73_629
*8590 FILLER_0_73_641
*8591 FILLER_0_73_653
*8592 FILLER_0_73_665
*8593 FILLER_0_73_671
*8594 FILLER_0_73_673
*8595 FILLER_0_73_685
*8596 FILLER_0_73_69
*8597 FILLER_0_73_697
*8598 FILLER_0_73_709
*8599 FILLER_0_73_721
*8600 FILLER_0_73_727
*8601 FILLER_0_73_729
*8602 FILLER_0_73_741
*8603 FILLER_0_73_753
*8604 FILLER_0_73_765
*8605 FILLER_0_73_777
*8606 FILLER_0_73_81
*8607 FILLER_0_73_93
*8608 FILLER_0_74_109
*8609 FILLER_0_74_121
*8610 FILLER_0_74_133
*8611 FILLER_0_74_139
*8612 FILLER_0_74_141
*8613 FILLER_0_74_15
*8614 FILLER_0_74_153
*8615 FILLER_0_74_165
*8616 FILLER_0_74_177
*8617 FILLER_0_74_189
*8618 FILLER_0_74_195
*8619 FILLER_0_74_197
*8620 FILLER_0_74_209
*8621 FILLER_0_74_221
*8622 FILLER_0_74_233
*8623 FILLER_0_74_245
*8624 FILLER_0_74_251
*8625 FILLER_0_74_253
*8626 FILLER_0_74_265
*8627 FILLER_0_74_27
*8628 FILLER_0_74_277
*8629 FILLER_0_74_289
*8630 FILLER_0_74_29
*8631 FILLER_0_74_3
*8632 FILLER_0_74_301
*8633 FILLER_0_74_307
*8634 FILLER_0_74_309
*8635 FILLER_0_74_321
*8636 FILLER_0_74_333
*8637 FILLER_0_74_345
*8638 FILLER_0_74_357
*8639 FILLER_0_74_363
*8640 FILLER_0_74_365
*8641 FILLER_0_74_377
*8642 FILLER_0_74_389
*8643 FILLER_0_74_401
*8644 FILLER_0_74_41
*8645 FILLER_0_74_413
*8646 FILLER_0_74_419
*8647 FILLER_0_74_421
*8648 FILLER_0_74_433
*8649 FILLER_0_74_445
*8650 FILLER_0_74_457
*8651 FILLER_0_74_469
*8652 FILLER_0_74_475
*8653 FILLER_0_74_477
*8654 FILLER_0_74_489
*8655 FILLER_0_74_501
*8656 FILLER_0_74_513
*8657 FILLER_0_74_525
*8658 FILLER_0_74_53
*8659 FILLER_0_74_531
*8660 FILLER_0_74_533
*8661 FILLER_0_74_545
*8662 FILLER_0_74_557
*8663 FILLER_0_74_569
*8664 FILLER_0_74_581
*8665 FILLER_0_74_587
*8666 FILLER_0_74_589
*8667 FILLER_0_74_601
*8668 FILLER_0_74_613
*8669 FILLER_0_74_625
*8670 FILLER_0_74_637
*8671 FILLER_0_74_643
*8672 FILLER_0_74_645
*8673 FILLER_0_74_65
*8674 FILLER_0_74_657
*8675 FILLER_0_74_669
*8676 FILLER_0_74_681
*8677 FILLER_0_74_693
*8678 FILLER_0_74_699
*8679 FILLER_0_74_701
*8680 FILLER_0_74_713
*8681 FILLER_0_74_725
*8682 FILLER_0_74_737
*8683 FILLER_0_74_749
*8684 FILLER_0_74_755
*8685 FILLER_0_74_757
*8686 FILLER_0_74_769
*8687 FILLER_0_74_77
*8688 FILLER_0_74_777
*8689 FILLER_0_74_83
*8690 FILLER_0_74_85
*8691 FILLER_0_74_97
*8692 FILLER_0_75_105
*8693 FILLER_0_75_111
*8694 FILLER_0_75_113
*8695 FILLER_0_75_125
*8696 FILLER_0_75_137
*8697 FILLER_0_75_149
*8698 FILLER_0_75_15
*8699 FILLER_0_75_161
*8700 FILLER_0_75_167
*8701 FILLER_0_75_169
*8702 FILLER_0_75_181
*8703 FILLER_0_75_193
*8704 FILLER_0_75_205
*8705 FILLER_0_75_217
*8706 FILLER_0_75_223
*8707 FILLER_0_75_225
*8708 FILLER_0_75_237
*8709 FILLER_0_75_249
*8710 FILLER_0_75_261
*8711 FILLER_0_75_27
*8712 FILLER_0_75_273
*8713 FILLER_0_75_279
*8714 FILLER_0_75_281
*8715 FILLER_0_75_293
*8716 FILLER_0_75_3
*8717 FILLER_0_75_305
*8718 FILLER_0_75_317
*8719 FILLER_0_75_329
*8720 FILLER_0_75_335
*8721 FILLER_0_75_337
*8722 FILLER_0_75_349
*8723 FILLER_0_75_361
*8724 FILLER_0_75_373
*8725 FILLER_0_75_385
*8726 FILLER_0_75_39
*8727 FILLER_0_75_391
*8728 FILLER_0_75_393
*8729 FILLER_0_75_405
*8730 FILLER_0_75_417
*8731 FILLER_0_75_429
*8732 FILLER_0_75_441
*8733 FILLER_0_75_447
*8734 FILLER_0_75_449
*8735 FILLER_0_75_461
*8736 FILLER_0_75_473
*8737 FILLER_0_75_485
*8738 FILLER_0_75_497
*8739 FILLER_0_75_503
*8740 FILLER_0_75_505
*8741 FILLER_0_75_51
*8742 FILLER_0_75_517
*8743 FILLER_0_75_529
*8744 FILLER_0_75_541
*8745 FILLER_0_75_55
*8746 FILLER_0_75_553
*8747 FILLER_0_75_559
*8748 FILLER_0_75_561
*8749 FILLER_0_75_57
*8750 FILLER_0_75_573
*8751 FILLER_0_75_585
*8752 FILLER_0_75_597
*8753 FILLER_0_75_609
*8754 FILLER_0_75_615
*8755 FILLER_0_75_617
*8756 FILLER_0_75_629
*8757 FILLER_0_75_641
*8758 FILLER_0_75_653
*8759 FILLER_0_75_665
*8760 FILLER_0_75_671
*8761 FILLER_0_75_673
*8762 FILLER_0_75_685
*8763 FILLER_0_75_69
*8764 FILLER_0_75_697
*8765 FILLER_0_75_709
*8766 FILLER_0_75_721
*8767 FILLER_0_75_727
*8768 FILLER_0_75_729
*8769 FILLER_0_75_741
*8770 FILLER_0_75_753
*8771 FILLER_0_75_765
*8772 FILLER_0_75_777
*8773 FILLER_0_75_81
*8774 FILLER_0_75_93
*8775 FILLER_0_76_109
*8776 FILLER_0_76_121
*8777 FILLER_0_76_133
*8778 FILLER_0_76_139
*8779 FILLER_0_76_141
*8780 FILLER_0_76_15
*8781 FILLER_0_76_153
*8782 FILLER_0_76_165
*8783 FILLER_0_76_177
*8784 FILLER_0_76_189
*8785 FILLER_0_76_195
*8786 FILLER_0_76_197
*8787 FILLER_0_76_209
*8788 FILLER_0_76_221
*8789 FILLER_0_76_233
*8790 FILLER_0_76_245
*8791 FILLER_0_76_251
*8792 FILLER_0_76_253
*8793 FILLER_0_76_265
*8794 FILLER_0_76_27
*8795 FILLER_0_76_277
*8796 FILLER_0_76_289
*8797 FILLER_0_76_29
*8798 FILLER_0_76_3
*8799 FILLER_0_76_301
*8800 FILLER_0_76_307
*8801 FILLER_0_76_309
*8802 FILLER_0_76_321
*8803 FILLER_0_76_333
*8804 FILLER_0_76_345
*8805 FILLER_0_76_357
*8806 FILLER_0_76_363
*8807 FILLER_0_76_365
*8808 FILLER_0_76_377
*8809 FILLER_0_76_389
*8810 FILLER_0_76_401
*8811 FILLER_0_76_41
*8812 FILLER_0_76_413
*8813 FILLER_0_76_419
*8814 FILLER_0_76_421
*8815 FILLER_0_76_433
*8816 FILLER_0_76_445
*8817 FILLER_0_76_457
*8818 FILLER_0_76_469
*8819 FILLER_0_76_475
*8820 FILLER_0_76_477
*8821 FILLER_0_76_489
*8822 FILLER_0_76_501
*8823 FILLER_0_76_513
*8824 FILLER_0_76_525
*8825 FILLER_0_76_53
*8826 FILLER_0_76_531
*8827 FILLER_0_76_533
*8828 FILLER_0_76_545
*8829 FILLER_0_76_557
*8830 FILLER_0_76_569
*8831 FILLER_0_76_581
*8832 FILLER_0_76_587
*8833 FILLER_0_76_589
*8834 FILLER_0_76_601
*8835 FILLER_0_76_613
*8836 FILLER_0_76_625
*8837 FILLER_0_76_637
*8838 FILLER_0_76_643
*8839 FILLER_0_76_645
*8840 FILLER_0_76_65
*8841 FILLER_0_76_657
*8842 FILLER_0_76_669
*8843 FILLER_0_76_681
*8844 FILLER_0_76_693
*8845 FILLER_0_76_699
*8846 FILLER_0_76_701
*8847 FILLER_0_76_713
*8848 FILLER_0_76_725
*8849 FILLER_0_76_737
*8850 FILLER_0_76_749
*8851 FILLER_0_76_755
*8852 FILLER_0_76_757
*8853 FILLER_0_76_769
*8854 FILLER_0_76_77
*8855 FILLER_0_76_777
*8856 FILLER_0_76_83
*8857 FILLER_0_76_85
*8858 FILLER_0_76_97
*8859 FILLER_0_77_105
*8860 FILLER_0_77_111
*8861 FILLER_0_77_113
*8862 FILLER_0_77_125
*8863 FILLER_0_77_137
*8864 FILLER_0_77_149
*8865 FILLER_0_77_15
*8866 FILLER_0_77_161
*8867 FILLER_0_77_167
*8868 FILLER_0_77_169
*8869 FILLER_0_77_181
*8870 FILLER_0_77_193
*8871 FILLER_0_77_205
*8872 FILLER_0_77_217
*8873 FILLER_0_77_223
*8874 FILLER_0_77_225
*8875 FILLER_0_77_237
*8876 FILLER_0_77_249
*8877 FILLER_0_77_261
*8878 FILLER_0_77_27
*8879 FILLER_0_77_273
*8880 FILLER_0_77_279
*8881 FILLER_0_77_281
*8882 FILLER_0_77_293
*8883 FILLER_0_77_3
*8884 FILLER_0_77_305
*8885 FILLER_0_77_317
*8886 FILLER_0_77_329
*8887 FILLER_0_77_335
*8888 FILLER_0_77_337
*8889 FILLER_0_77_349
*8890 FILLER_0_77_361
*8891 FILLER_0_77_373
*8892 FILLER_0_77_385
*8893 FILLER_0_77_39
*8894 FILLER_0_77_391
*8895 FILLER_0_77_393
*8896 FILLER_0_77_405
*8897 FILLER_0_77_417
*8898 FILLER_0_77_429
*8899 FILLER_0_77_441
*8900 FILLER_0_77_447
*8901 FILLER_0_77_449
*8902 FILLER_0_77_461
*8903 FILLER_0_77_473
*8904 FILLER_0_77_485
*8905 FILLER_0_77_497
*8906 FILLER_0_77_503
*8907 FILLER_0_77_505
*8908 FILLER_0_77_51
*8909 FILLER_0_77_517
*8910 FILLER_0_77_529
*8911 FILLER_0_77_541
*8912 FILLER_0_77_55
*8913 FILLER_0_77_553
*8914 FILLER_0_77_559
*8915 FILLER_0_77_561
*8916 FILLER_0_77_57
*8917 FILLER_0_77_573
*8918 FILLER_0_77_585
*8919 FILLER_0_77_597
*8920 FILLER_0_77_609
*8921 FILLER_0_77_615
*8922 FILLER_0_77_617
*8923 FILLER_0_77_629
*8924 FILLER_0_77_641
*8925 FILLER_0_77_653
*8926 FILLER_0_77_665
*8927 FILLER_0_77_671
*8928 FILLER_0_77_673
*8929 FILLER_0_77_685
*8930 FILLER_0_77_69
*8931 FILLER_0_77_697
*8932 FILLER_0_77_709
*8933 FILLER_0_77_721
*8934 FILLER_0_77_727
*8935 FILLER_0_77_729
*8936 FILLER_0_77_741
*8937 FILLER_0_77_753
*8938 FILLER_0_77_765
*8939 FILLER_0_77_777
*8940 FILLER_0_77_81
*8941 FILLER_0_77_93
*8942 FILLER_0_78_109
*8943 FILLER_0_78_121
*8944 FILLER_0_78_133
*8945 FILLER_0_78_139
*8946 FILLER_0_78_141
*8947 FILLER_0_78_15
*8948 FILLER_0_78_153
*8949 FILLER_0_78_165
*8950 FILLER_0_78_177
*8951 FILLER_0_78_189
*8952 FILLER_0_78_195
*8953 FILLER_0_78_197
*8954 FILLER_0_78_209
*8955 FILLER_0_78_221
*8956 FILLER_0_78_233
*8957 FILLER_0_78_245
*8958 FILLER_0_78_251
*8959 FILLER_0_78_253
*8960 FILLER_0_78_265
*8961 FILLER_0_78_27
*8962 FILLER_0_78_277
*8963 FILLER_0_78_289
*8964 FILLER_0_78_29
*8965 FILLER_0_78_3
*8966 FILLER_0_78_301
*8967 FILLER_0_78_307
*8968 FILLER_0_78_309
*8969 FILLER_0_78_321
*8970 FILLER_0_78_333
*8971 FILLER_0_78_345
*8972 FILLER_0_78_357
*8973 FILLER_0_78_363
*8974 FILLER_0_78_365
*8975 FILLER_0_78_377
*8976 FILLER_0_78_389
*8977 FILLER_0_78_401
*8978 FILLER_0_78_41
*8979 FILLER_0_78_413
*8980 FILLER_0_78_419
*8981 FILLER_0_78_421
*8982 FILLER_0_78_433
*8983 FILLER_0_78_445
*8984 FILLER_0_78_457
*8985 FILLER_0_78_469
*8986 FILLER_0_78_475
*8987 FILLER_0_78_477
*8988 FILLER_0_78_489
*8989 FILLER_0_78_501
*8990 FILLER_0_78_513
*8991 FILLER_0_78_525
*8992 FILLER_0_78_53
*8993 FILLER_0_78_531
*8994 FILLER_0_78_533
*8995 FILLER_0_78_545
*8996 FILLER_0_78_557
*8997 FILLER_0_78_569
*8998 FILLER_0_78_581
*8999 FILLER_0_78_587
*9000 FILLER_0_78_589
*9001 FILLER_0_78_601
*9002 FILLER_0_78_613
*9003 FILLER_0_78_625
*9004 FILLER_0_78_637
*9005 FILLER_0_78_643
*9006 FILLER_0_78_645
*9007 FILLER_0_78_65
*9008 FILLER_0_78_657
*9009 FILLER_0_78_669
*9010 FILLER_0_78_681
*9011 FILLER_0_78_693
*9012 FILLER_0_78_699
*9013 FILLER_0_78_701
*9014 FILLER_0_78_713
*9015 FILLER_0_78_725
*9016 FILLER_0_78_737
*9017 FILLER_0_78_749
*9018 FILLER_0_78_755
*9019 FILLER_0_78_757
*9020 FILLER_0_78_769
*9021 FILLER_0_78_77
*9022 FILLER_0_78_777
*9023 FILLER_0_78_83
*9024 FILLER_0_78_85
*9025 FILLER_0_78_97
*9026 FILLER_0_79_105
*9027 FILLER_0_79_111
*9028 FILLER_0_79_113
*9029 FILLER_0_79_125
*9030 FILLER_0_79_137
*9031 FILLER_0_79_149
*9032 FILLER_0_79_15
*9033 FILLER_0_79_161
*9034 FILLER_0_79_167
*9035 FILLER_0_79_169
*9036 FILLER_0_79_181
*9037 FILLER_0_79_193
*9038 FILLER_0_79_205
*9039 FILLER_0_79_217
*9040 FILLER_0_79_223
*9041 FILLER_0_79_225
*9042 FILLER_0_79_237
*9043 FILLER_0_79_249
*9044 FILLER_0_79_261
*9045 FILLER_0_79_27
*9046 FILLER_0_79_273
*9047 FILLER_0_79_279
*9048 FILLER_0_79_281
*9049 FILLER_0_79_293
*9050 FILLER_0_79_3
*9051 FILLER_0_79_305
*9052 FILLER_0_79_317
*9053 FILLER_0_79_329
*9054 FILLER_0_79_335
*9055 FILLER_0_79_337
*9056 FILLER_0_79_349
*9057 FILLER_0_79_361
*9058 FILLER_0_79_373
*9059 FILLER_0_79_385
*9060 FILLER_0_79_39
*9061 FILLER_0_79_391
*9062 FILLER_0_79_393
*9063 FILLER_0_79_405
*9064 FILLER_0_79_417
*9065 FILLER_0_79_429
*9066 FILLER_0_79_441
*9067 FILLER_0_79_447
*9068 FILLER_0_79_449
*9069 FILLER_0_79_461
*9070 FILLER_0_79_473
*9071 FILLER_0_79_485
*9072 FILLER_0_79_497
*9073 FILLER_0_79_503
*9074 FILLER_0_79_505
*9075 FILLER_0_79_51
*9076 FILLER_0_79_517
*9077 FILLER_0_79_529
*9078 FILLER_0_79_541
*9079 FILLER_0_79_55
*9080 FILLER_0_79_553
*9081 FILLER_0_79_559
*9082 FILLER_0_79_561
*9083 FILLER_0_79_57
*9084 FILLER_0_79_573
*9085 FILLER_0_79_585
*9086 FILLER_0_79_597
*9087 FILLER_0_79_609
*9088 FILLER_0_79_615
*9089 FILLER_0_79_617
*9090 FILLER_0_79_629
*9091 FILLER_0_79_641
*9092 FILLER_0_79_653
*9093 FILLER_0_79_665
*9094 FILLER_0_79_671
*9095 FILLER_0_79_673
*9096 FILLER_0_79_685
*9097 FILLER_0_79_69
*9098 FILLER_0_79_697
*9099 FILLER_0_79_709
*9100 FILLER_0_79_721
*9101 FILLER_0_79_727
*9102 FILLER_0_79_729
*9103 FILLER_0_79_741
*9104 FILLER_0_79_753
*9105 FILLER_0_79_765
*9106 FILLER_0_79_777
*9107 FILLER_0_79_81
*9108 FILLER_0_79_93
*9109 FILLER_0_7_105
*9110 FILLER_0_7_111
*9111 FILLER_0_7_113
*9112 FILLER_0_7_125
*9113 FILLER_0_7_137
*9114 FILLER_0_7_149
*9115 FILLER_0_7_15
*9116 FILLER_0_7_161
*9117 FILLER_0_7_167
*9118 FILLER_0_7_169
*9119 FILLER_0_7_181
*9120 FILLER_0_7_193
*9121 FILLER_0_7_205
*9122 FILLER_0_7_217
*9123 FILLER_0_7_223
*9124 FILLER_0_7_225
*9125 FILLER_0_7_237
*9126 FILLER_0_7_249
*9127 FILLER_0_7_261
*9128 FILLER_0_7_27
*9129 FILLER_0_7_273
*9130 FILLER_0_7_279
*9131 FILLER_0_7_281
*9132 FILLER_0_7_293
*9133 FILLER_0_7_3
*9134 FILLER_0_7_305
*9135 FILLER_0_7_317
*9136 FILLER_0_7_329
*9137 FILLER_0_7_335
*9138 FILLER_0_7_337
*9139 FILLER_0_7_349
*9140 FILLER_0_7_361
*9141 FILLER_0_7_373
*9142 FILLER_0_7_385
*9143 FILLER_0_7_39
*9144 FILLER_0_7_391
*9145 FILLER_0_7_393
*9146 FILLER_0_7_405
*9147 FILLER_0_7_417
*9148 FILLER_0_7_429
*9149 FILLER_0_7_441
*9150 FILLER_0_7_447
*9151 FILLER_0_7_449
*9152 FILLER_0_7_461
*9153 FILLER_0_7_473
*9154 FILLER_0_7_485
*9155 FILLER_0_7_497
*9156 FILLER_0_7_503
*9157 FILLER_0_7_505
*9158 FILLER_0_7_51
*9159 FILLER_0_7_517
*9160 FILLER_0_7_529
*9161 FILLER_0_7_541
*9162 FILLER_0_7_55
*9163 FILLER_0_7_553
*9164 FILLER_0_7_559
*9165 FILLER_0_7_561
*9166 FILLER_0_7_57
*9167 FILLER_0_7_573
*9168 FILLER_0_7_585
*9169 FILLER_0_7_597
*9170 FILLER_0_7_609
*9171 FILLER_0_7_615
*9172 FILLER_0_7_617
*9173 FILLER_0_7_629
*9174 FILLER_0_7_641
*9175 FILLER_0_7_653
*9176 FILLER_0_7_665
*9177 FILLER_0_7_671
*9178 FILLER_0_7_673
*9179 FILLER_0_7_685
*9180 FILLER_0_7_69
*9181 FILLER_0_7_697
*9182 FILLER_0_7_709
*9183 FILLER_0_7_721
*9184 FILLER_0_7_727
*9185 FILLER_0_7_729
*9186 FILLER_0_7_741
*9187 FILLER_0_7_753
*9188 FILLER_0_7_765
*9189 FILLER_0_7_777
*9190 FILLER_0_7_81
*9191 FILLER_0_7_93
*9192 FILLER_0_80_109
*9193 FILLER_0_80_121
*9194 FILLER_0_80_133
*9195 FILLER_0_80_139
*9196 FILLER_0_80_141
*9197 FILLER_0_80_15
*9198 FILLER_0_80_153
*9199 FILLER_0_80_165
*9200 FILLER_0_80_177
*9201 FILLER_0_80_189
*9202 FILLER_0_80_195
*9203 FILLER_0_80_197
*9204 FILLER_0_80_209
*9205 FILLER_0_80_221
*9206 FILLER_0_80_233
*9207 FILLER_0_80_245
*9208 FILLER_0_80_251
*9209 FILLER_0_80_253
*9210 FILLER_0_80_265
*9211 FILLER_0_80_27
*9212 FILLER_0_80_277
*9213 FILLER_0_80_289
*9214 FILLER_0_80_29
*9215 FILLER_0_80_3
*9216 FILLER_0_80_301
*9217 FILLER_0_80_307
*9218 FILLER_0_80_309
*9219 FILLER_0_80_321
*9220 FILLER_0_80_333
*9221 FILLER_0_80_345
*9222 FILLER_0_80_357
*9223 FILLER_0_80_363
*9224 FILLER_0_80_365
*9225 FILLER_0_80_377
*9226 FILLER_0_80_389
*9227 FILLER_0_80_401
*9228 FILLER_0_80_41
*9229 FILLER_0_80_413
*9230 FILLER_0_80_419
*9231 FILLER_0_80_421
*9232 FILLER_0_80_433
*9233 FILLER_0_80_445
*9234 FILLER_0_80_457
*9235 FILLER_0_80_469
*9236 FILLER_0_80_475
*9237 FILLER_0_80_477
*9238 FILLER_0_80_489
*9239 FILLER_0_80_501
*9240 FILLER_0_80_513
*9241 FILLER_0_80_525
*9242 FILLER_0_80_53
*9243 FILLER_0_80_531
*9244 FILLER_0_80_533
*9245 FILLER_0_80_545
*9246 FILLER_0_80_557
*9247 FILLER_0_80_569
*9248 FILLER_0_80_581
*9249 FILLER_0_80_587
*9250 FILLER_0_80_589
*9251 FILLER_0_80_601
*9252 FILLER_0_80_613
*9253 FILLER_0_80_625
*9254 FILLER_0_80_637
*9255 FILLER_0_80_643
*9256 FILLER_0_80_645
*9257 FILLER_0_80_65
*9258 FILLER_0_80_657
*9259 FILLER_0_80_669
*9260 FILLER_0_80_681
*9261 FILLER_0_80_693
*9262 FILLER_0_80_699
*9263 FILLER_0_80_701
*9264 FILLER_0_80_713
*9265 FILLER_0_80_725
*9266 FILLER_0_80_737
*9267 FILLER_0_80_749
*9268 FILLER_0_80_755
*9269 FILLER_0_80_757
*9270 FILLER_0_80_769
*9271 FILLER_0_80_77
*9272 FILLER_0_80_777
*9273 FILLER_0_80_83
*9274 FILLER_0_80_85
*9275 FILLER_0_80_97
*9276 FILLER_0_81_105
*9277 FILLER_0_81_111
*9278 FILLER_0_81_113
*9279 FILLER_0_81_125
*9280 FILLER_0_81_137
*9281 FILLER_0_81_149
*9282 FILLER_0_81_15
*9283 FILLER_0_81_161
*9284 FILLER_0_81_167
*9285 FILLER_0_81_169
*9286 FILLER_0_81_181
*9287 FILLER_0_81_193
*9288 FILLER_0_81_205
*9289 FILLER_0_81_217
*9290 FILLER_0_81_223
*9291 FILLER_0_81_225
*9292 FILLER_0_81_237
*9293 FILLER_0_81_249
*9294 FILLER_0_81_261
*9295 FILLER_0_81_27
*9296 FILLER_0_81_273
*9297 FILLER_0_81_279
*9298 FILLER_0_81_281
*9299 FILLER_0_81_293
*9300 FILLER_0_81_3
*9301 FILLER_0_81_305
*9302 FILLER_0_81_317
*9303 FILLER_0_81_329
*9304 FILLER_0_81_335
*9305 FILLER_0_81_337
*9306 FILLER_0_81_349
*9307 FILLER_0_81_361
*9308 FILLER_0_81_373
*9309 FILLER_0_81_385
*9310 FILLER_0_81_39
*9311 FILLER_0_81_391
*9312 FILLER_0_81_393
*9313 FILLER_0_81_405
*9314 FILLER_0_81_417
*9315 FILLER_0_81_429
*9316 FILLER_0_81_441
*9317 FILLER_0_81_447
*9318 FILLER_0_81_449
*9319 FILLER_0_81_461
*9320 FILLER_0_81_473
*9321 FILLER_0_81_485
*9322 FILLER_0_81_497
*9323 FILLER_0_81_503
*9324 FILLER_0_81_505
*9325 FILLER_0_81_51
*9326 FILLER_0_81_517
*9327 FILLER_0_81_529
*9328 FILLER_0_81_541
*9329 FILLER_0_81_55
*9330 FILLER_0_81_553
*9331 FILLER_0_81_559
*9332 FILLER_0_81_561
*9333 FILLER_0_81_57
*9334 FILLER_0_81_573
*9335 FILLER_0_81_585
*9336 FILLER_0_81_597
*9337 FILLER_0_81_609
*9338 FILLER_0_81_615
*9339 FILLER_0_81_617
*9340 FILLER_0_81_629
*9341 FILLER_0_81_641
*9342 FILLER_0_81_653
*9343 FILLER_0_81_665
*9344 FILLER_0_81_671
*9345 FILLER_0_81_673
*9346 FILLER_0_81_685
*9347 FILLER_0_81_69
*9348 FILLER_0_81_697
*9349 FILLER_0_81_709
*9350 FILLER_0_81_721
*9351 FILLER_0_81_727
*9352 FILLER_0_81_729
*9353 FILLER_0_81_741
*9354 FILLER_0_81_753
*9355 FILLER_0_81_765
*9356 FILLER_0_81_777
*9357 FILLER_0_81_81
*9358 FILLER_0_81_93
*9359 FILLER_0_82_103
*9360 FILLER_0_82_107
*9361 FILLER_0_82_119
*9362 FILLER_0_82_131
*9363 FILLER_0_82_139
*9364 FILLER_0_82_141
*9365 FILLER_0_82_15
*9366 FILLER_0_82_153
*9367 FILLER_0_82_165
*9368 FILLER_0_82_177
*9369 FILLER_0_82_189
*9370 FILLER_0_82_195
*9371 FILLER_0_82_197
*9372 FILLER_0_82_209
*9373 FILLER_0_82_221
*9374 FILLER_0_82_233
*9375 FILLER_0_82_245
*9376 FILLER_0_82_251
*9377 FILLER_0_82_253
*9378 FILLER_0_82_265
*9379 FILLER_0_82_27
*9380 FILLER_0_82_277
*9381 FILLER_0_82_289
*9382 FILLER_0_82_29
*9383 FILLER_0_82_3
*9384 FILLER_0_82_301
*9385 FILLER_0_82_307
*9386 FILLER_0_82_309
*9387 FILLER_0_82_321
*9388 FILLER_0_82_333
*9389 FILLER_0_82_345
*9390 FILLER_0_82_357
*9391 FILLER_0_82_363
*9392 FILLER_0_82_365
*9393 FILLER_0_82_377
*9394 FILLER_0_82_389
*9395 FILLER_0_82_401
*9396 FILLER_0_82_41
*9397 FILLER_0_82_413
*9398 FILLER_0_82_419
*9399 FILLER_0_82_421
*9400 FILLER_0_82_433
*9401 FILLER_0_82_445
*9402 FILLER_0_82_457
*9403 FILLER_0_82_469
*9404 FILLER_0_82_475
*9405 FILLER_0_82_477
*9406 FILLER_0_82_489
*9407 FILLER_0_82_501
*9408 FILLER_0_82_513
*9409 FILLER_0_82_525
*9410 FILLER_0_82_53
*9411 FILLER_0_82_531
*9412 FILLER_0_82_533
*9413 FILLER_0_82_545
*9414 FILLER_0_82_557
*9415 FILLER_0_82_569
*9416 FILLER_0_82_581
*9417 FILLER_0_82_587
*9418 FILLER_0_82_589
*9419 FILLER_0_82_601
*9420 FILLER_0_82_613
*9421 FILLER_0_82_625
*9422 FILLER_0_82_637
*9423 FILLER_0_82_643
*9424 FILLER_0_82_645
*9425 FILLER_0_82_65
*9426 FILLER_0_82_657
*9427 FILLER_0_82_669
*9428 FILLER_0_82_681
*9429 FILLER_0_82_693
*9430 FILLER_0_82_699
*9431 FILLER_0_82_701
*9432 FILLER_0_82_713
*9433 FILLER_0_82_725
*9434 FILLER_0_82_737
*9435 FILLER_0_82_749
*9436 FILLER_0_82_755
*9437 FILLER_0_82_757
*9438 FILLER_0_82_769
*9439 FILLER_0_82_77
*9440 FILLER_0_82_777
*9441 FILLER_0_82_83
*9442 FILLER_0_82_85
*9443 FILLER_0_82_97
*9444 FILLER_0_83_105
*9445 FILLER_0_83_111
*9446 FILLER_0_83_113
*9447 FILLER_0_83_125
*9448 FILLER_0_83_137
*9449 FILLER_0_83_149
*9450 FILLER_0_83_15
*9451 FILLER_0_83_161
*9452 FILLER_0_83_167
*9453 FILLER_0_83_169
*9454 FILLER_0_83_181
*9455 FILLER_0_83_193
*9456 FILLER_0_83_205
*9457 FILLER_0_83_217
*9458 FILLER_0_83_223
*9459 FILLER_0_83_225
*9460 FILLER_0_83_237
*9461 FILLER_0_83_249
*9462 FILLER_0_83_261
*9463 FILLER_0_83_27
*9464 FILLER_0_83_273
*9465 FILLER_0_83_279
*9466 FILLER_0_83_281
*9467 FILLER_0_83_293
*9468 FILLER_0_83_3
*9469 FILLER_0_83_305
*9470 FILLER_0_83_317
*9471 FILLER_0_83_329
*9472 FILLER_0_83_335
*9473 FILLER_0_83_337
*9474 FILLER_0_83_349
*9475 FILLER_0_83_361
*9476 FILLER_0_83_373
*9477 FILLER_0_83_385
*9478 FILLER_0_83_39
*9479 FILLER_0_83_391
*9480 FILLER_0_83_393
*9481 FILLER_0_83_405
*9482 FILLER_0_83_417
*9483 FILLER_0_83_429
*9484 FILLER_0_83_441
*9485 FILLER_0_83_447
*9486 FILLER_0_83_449
*9487 FILLER_0_83_461
*9488 FILLER_0_83_473
*9489 FILLER_0_83_485
*9490 FILLER_0_83_497
*9491 FILLER_0_83_503
*9492 FILLER_0_83_505
*9493 FILLER_0_83_51
*9494 FILLER_0_83_517
*9495 FILLER_0_83_529
*9496 FILLER_0_83_541
*9497 FILLER_0_83_55
*9498 FILLER_0_83_553
*9499 FILLER_0_83_559
*9500 FILLER_0_83_561
*9501 FILLER_0_83_57
*9502 FILLER_0_83_573
*9503 FILLER_0_83_585
*9504 FILLER_0_83_597
*9505 FILLER_0_83_609
*9506 FILLER_0_83_615
*9507 FILLER_0_83_617
*9508 FILLER_0_83_629
*9509 FILLER_0_83_641
*9510 FILLER_0_83_653
*9511 FILLER_0_83_665
*9512 FILLER_0_83_671
*9513 FILLER_0_83_673
*9514 FILLER_0_83_685
*9515 FILLER_0_83_69
*9516 FILLER_0_83_697
*9517 FILLER_0_83_709
*9518 FILLER_0_83_721
*9519 FILLER_0_83_727
*9520 FILLER_0_83_729
*9521 FILLER_0_83_741
*9522 FILLER_0_83_753
*9523 FILLER_0_83_765
*9524 FILLER_0_83_777
*9525 FILLER_0_83_81
*9526 FILLER_0_83_93
*9527 FILLER_0_84_109
*9528 FILLER_0_84_121
*9529 FILLER_0_84_133
*9530 FILLER_0_84_139
*9531 FILLER_0_84_141
*9532 FILLER_0_84_15
*9533 FILLER_0_84_153
*9534 FILLER_0_84_165
*9535 FILLER_0_84_177
*9536 FILLER_0_84_189
*9537 FILLER_0_84_195
*9538 FILLER_0_84_197
*9539 FILLER_0_84_209
*9540 FILLER_0_84_221
*9541 FILLER_0_84_233
*9542 FILLER_0_84_245
*9543 FILLER_0_84_251
*9544 FILLER_0_84_253
*9545 FILLER_0_84_265
*9546 FILLER_0_84_27
*9547 FILLER_0_84_277
*9548 FILLER_0_84_289
*9549 FILLER_0_84_29
*9550 FILLER_0_84_3
*9551 FILLER_0_84_301
*9552 FILLER_0_84_307
*9553 FILLER_0_84_309
*9554 FILLER_0_84_321
*9555 FILLER_0_84_333
*9556 FILLER_0_84_345
*9557 FILLER_0_84_357
*9558 FILLER_0_84_363
*9559 FILLER_0_84_365
*9560 FILLER_0_84_377
*9561 FILLER_0_84_389
*9562 FILLER_0_84_401
*9563 FILLER_0_84_41
*9564 FILLER_0_84_413
*9565 FILLER_0_84_419
*9566 FILLER_0_84_421
*9567 FILLER_0_84_433
*9568 FILLER_0_84_445
*9569 FILLER_0_84_457
*9570 FILLER_0_84_469
*9571 FILLER_0_84_475
*9572 FILLER_0_84_477
*9573 FILLER_0_84_489
*9574 FILLER_0_84_501
*9575 FILLER_0_84_513
*9576 FILLER_0_84_525
*9577 FILLER_0_84_53
*9578 FILLER_0_84_531
*9579 FILLER_0_84_533
*9580 FILLER_0_84_545
*9581 FILLER_0_84_557
*9582 FILLER_0_84_569
*9583 FILLER_0_84_581
*9584 FILLER_0_84_587
*9585 FILLER_0_84_589
*9586 FILLER_0_84_601
*9587 FILLER_0_84_613
*9588 FILLER_0_84_625
*9589 FILLER_0_84_637
*9590 FILLER_0_84_643
*9591 FILLER_0_84_645
*9592 FILLER_0_84_65
*9593 FILLER_0_84_657
*9594 FILLER_0_84_669
*9595 FILLER_0_84_681
*9596 FILLER_0_84_693
*9597 FILLER_0_84_699
*9598 FILLER_0_84_701
*9599 FILLER_0_84_713
*9600 FILLER_0_84_725
*9601 FILLER_0_84_737
*9602 FILLER_0_84_749
*9603 FILLER_0_84_755
*9604 FILLER_0_84_757
*9605 FILLER_0_84_769
*9606 FILLER_0_84_77
*9607 FILLER_0_84_777
*9608 FILLER_0_84_83
*9609 FILLER_0_84_85
*9610 FILLER_0_84_97
*9611 FILLER_0_85_105
*9612 FILLER_0_85_111
*9613 FILLER_0_85_113
*9614 FILLER_0_85_125
*9615 FILLER_0_85_137
*9616 FILLER_0_85_149
*9617 FILLER_0_85_15
*9618 FILLER_0_85_161
*9619 FILLER_0_85_167
*9620 FILLER_0_85_169
*9621 FILLER_0_85_181
*9622 FILLER_0_85_193
*9623 FILLER_0_85_205
*9624 FILLER_0_85_217
*9625 FILLER_0_85_223
*9626 FILLER_0_85_225
*9627 FILLER_0_85_237
*9628 FILLER_0_85_249
*9629 FILLER_0_85_261
*9630 FILLER_0_85_27
*9631 FILLER_0_85_273
*9632 FILLER_0_85_279
*9633 FILLER_0_85_281
*9634 FILLER_0_85_293
*9635 FILLER_0_85_3
*9636 FILLER_0_85_305
*9637 FILLER_0_85_317
*9638 FILLER_0_85_329
*9639 FILLER_0_85_335
*9640 FILLER_0_85_337
*9641 FILLER_0_85_349
*9642 FILLER_0_85_361
*9643 FILLER_0_85_373
*9644 FILLER_0_85_385
*9645 FILLER_0_85_39
*9646 FILLER_0_85_391
*9647 FILLER_0_85_393
*9648 FILLER_0_85_405
*9649 FILLER_0_85_417
*9650 FILLER_0_85_429
*9651 FILLER_0_85_441
*9652 FILLER_0_85_447
*9653 FILLER_0_85_449
*9654 FILLER_0_85_461
*9655 FILLER_0_85_473
*9656 FILLER_0_85_485
*9657 FILLER_0_85_497
*9658 FILLER_0_85_503
*9659 FILLER_0_85_505
*9660 FILLER_0_85_51
*9661 FILLER_0_85_517
*9662 FILLER_0_85_529
*9663 FILLER_0_85_541
*9664 FILLER_0_85_55
*9665 FILLER_0_85_553
*9666 FILLER_0_85_559
*9667 FILLER_0_85_561
*9668 FILLER_0_85_57
*9669 FILLER_0_85_573
*9670 FILLER_0_85_585
*9671 FILLER_0_85_597
*9672 FILLER_0_85_609
*9673 FILLER_0_85_615
*9674 FILLER_0_85_617
*9675 FILLER_0_85_629
*9676 FILLER_0_85_641
*9677 FILLER_0_85_653
*9678 FILLER_0_85_665
*9679 FILLER_0_85_671
*9680 FILLER_0_85_673
*9681 FILLER_0_85_685
*9682 FILLER_0_85_69
*9683 FILLER_0_85_697
*9684 FILLER_0_85_709
*9685 FILLER_0_85_721
*9686 FILLER_0_85_727
*9687 FILLER_0_85_729
*9688 FILLER_0_85_741
*9689 FILLER_0_85_753
*9690 FILLER_0_85_765
*9691 FILLER_0_85_777
*9692 FILLER_0_85_81
*9693 FILLER_0_85_93
*9694 FILLER_0_86_109
*9695 FILLER_0_86_121
*9696 FILLER_0_86_133
*9697 FILLER_0_86_139
*9698 FILLER_0_86_141
*9699 FILLER_0_86_15
*9700 FILLER_0_86_153
*9701 FILLER_0_86_165
*9702 FILLER_0_86_177
*9703 FILLER_0_86_189
*9704 FILLER_0_86_195
*9705 FILLER_0_86_197
*9706 FILLER_0_86_209
*9707 FILLER_0_86_221
*9708 FILLER_0_86_233
*9709 FILLER_0_86_245
*9710 FILLER_0_86_251
*9711 FILLER_0_86_253
*9712 FILLER_0_86_265
*9713 FILLER_0_86_27
*9714 FILLER_0_86_277
*9715 FILLER_0_86_289
*9716 FILLER_0_86_29
*9717 FILLER_0_86_3
*9718 FILLER_0_86_301
*9719 FILLER_0_86_307
*9720 FILLER_0_86_309
*9721 FILLER_0_86_321
*9722 FILLER_0_86_333
*9723 FILLER_0_86_345
*9724 FILLER_0_86_357
*9725 FILLER_0_86_363
*9726 FILLER_0_86_365
*9727 FILLER_0_86_377
*9728 FILLER_0_86_389
*9729 FILLER_0_86_401
*9730 FILLER_0_86_41
*9731 FILLER_0_86_413
*9732 FILLER_0_86_419
*9733 FILLER_0_86_421
*9734 FILLER_0_86_433
*9735 FILLER_0_86_445
*9736 FILLER_0_86_457
*9737 FILLER_0_86_469
*9738 FILLER_0_86_475
*9739 FILLER_0_86_477
*9740 FILLER_0_86_489
*9741 FILLER_0_86_501
*9742 FILLER_0_86_513
*9743 FILLER_0_86_525
*9744 FILLER_0_86_53
*9745 FILLER_0_86_531
*9746 FILLER_0_86_533
*9747 FILLER_0_86_545
*9748 FILLER_0_86_557
*9749 FILLER_0_86_569
*9750 FILLER_0_86_581
*9751 FILLER_0_86_587
*9752 FILLER_0_86_589
*9753 FILLER_0_86_601
*9754 FILLER_0_86_613
*9755 FILLER_0_86_625
*9756 FILLER_0_86_637
*9757 FILLER_0_86_643
*9758 FILLER_0_86_645
*9759 FILLER_0_86_65
*9760 FILLER_0_86_657
*9761 FILLER_0_86_669
*9762 FILLER_0_86_681
*9763 FILLER_0_86_693
*9764 FILLER_0_86_699
*9765 FILLER_0_86_701
*9766 FILLER_0_86_713
*9767 FILLER_0_86_725
*9768 FILLER_0_86_737
*9769 FILLER_0_86_749
*9770 FILLER_0_86_755
*9771 FILLER_0_86_757
*9772 FILLER_0_86_769
*9773 FILLER_0_86_77
*9774 FILLER_0_86_777
*9775 FILLER_0_86_83
*9776 FILLER_0_86_85
*9777 FILLER_0_86_97
*9778 FILLER_0_87_105
*9779 FILLER_0_87_111
*9780 FILLER_0_87_113
*9781 FILLER_0_87_125
*9782 FILLER_0_87_137
*9783 FILLER_0_87_149
*9784 FILLER_0_87_15
*9785 FILLER_0_87_161
*9786 FILLER_0_87_167
*9787 FILLER_0_87_169
*9788 FILLER_0_87_181
*9789 FILLER_0_87_193
*9790 FILLER_0_87_205
*9791 FILLER_0_87_217
*9792 FILLER_0_87_223
*9793 FILLER_0_87_225
*9794 FILLER_0_87_237
*9795 FILLER_0_87_249
*9796 FILLER_0_87_261
*9797 FILLER_0_87_27
*9798 FILLER_0_87_273
*9799 FILLER_0_87_279
*9800 FILLER_0_87_281
*9801 FILLER_0_87_293
*9802 FILLER_0_87_3
*9803 FILLER_0_87_305
*9804 FILLER_0_87_317
*9805 FILLER_0_87_329
*9806 FILLER_0_87_335
*9807 FILLER_0_87_337
*9808 FILLER_0_87_349
*9809 FILLER_0_87_361
*9810 FILLER_0_87_373
*9811 FILLER_0_87_385
*9812 FILLER_0_87_39
*9813 FILLER_0_87_391
*9814 FILLER_0_87_393
*9815 FILLER_0_87_405
*9816 FILLER_0_87_417
*9817 FILLER_0_87_429
*9818 FILLER_0_87_441
*9819 FILLER_0_87_447
*9820 FILLER_0_87_449
*9821 FILLER_0_87_461
*9822 FILLER_0_87_473
*9823 FILLER_0_87_485
*9824 FILLER_0_87_497
*9825 FILLER_0_87_503
*9826 FILLER_0_87_505
*9827 FILLER_0_87_51
*9828 FILLER_0_87_517
*9829 FILLER_0_87_529
*9830 FILLER_0_87_541
*9831 FILLER_0_87_55
*9832 FILLER_0_87_553
*9833 FILLER_0_87_559
*9834 FILLER_0_87_561
*9835 FILLER_0_87_57
*9836 FILLER_0_87_573
*9837 FILLER_0_87_585
*9838 FILLER_0_87_597
*9839 FILLER_0_87_609
*9840 FILLER_0_87_615
*9841 FILLER_0_87_617
*9842 FILLER_0_87_629
*9843 FILLER_0_87_641
*9844 FILLER_0_87_653
*9845 FILLER_0_87_665
*9846 FILLER_0_87_671
*9847 FILLER_0_87_673
*9848 FILLER_0_87_685
*9849 FILLER_0_87_69
*9850 FILLER_0_87_697
*9851 FILLER_0_87_709
*9852 FILLER_0_87_721
*9853 FILLER_0_87_727
*9854 FILLER_0_87_729
*9855 FILLER_0_87_741
*9856 FILLER_0_87_753
*9857 FILLER_0_87_765
*9858 FILLER_0_87_777
*9859 FILLER_0_87_81
*9860 FILLER_0_87_93
*9861 FILLER_0_88_109
*9862 FILLER_0_88_121
*9863 FILLER_0_88_133
*9864 FILLER_0_88_139
*9865 FILLER_0_88_141
*9866 FILLER_0_88_15
*9867 FILLER_0_88_153
*9868 FILLER_0_88_165
*9869 FILLER_0_88_177
*9870 FILLER_0_88_189
*9871 FILLER_0_88_195
*9872 FILLER_0_88_197
*9873 FILLER_0_88_209
*9874 FILLER_0_88_221
*9875 FILLER_0_88_233
*9876 FILLER_0_88_245
*9877 FILLER_0_88_251
*9878 FILLER_0_88_253
*9879 FILLER_0_88_265
*9880 FILLER_0_88_27
*9881 FILLER_0_88_277
*9882 FILLER_0_88_289
*9883 FILLER_0_88_29
*9884 FILLER_0_88_3
*9885 FILLER_0_88_301
*9886 FILLER_0_88_307
*9887 FILLER_0_88_309
*9888 FILLER_0_88_321
*9889 FILLER_0_88_333
*9890 FILLER_0_88_345
*9891 FILLER_0_88_357
*9892 FILLER_0_88_363
*9893 FILLER_0_88_365
*9894 FILLER_0_88_377
*9895 FILLER_0_88_389
*9896 FILLER_0_88_401
*9897 FILLER_0_88_41
*9898 FILLER_0_88_413
*9899 FILLER_0_88_419
*9900 FILLER_0_88_421
*9901 FILLER_0_88_433
*9902 FILLER_0_88_445
*9903 FILLER_0_88_457
*9904 FILLER_0_88_469
*9905 FILLER_0_88_475
*9906 FILLER_0_88_477
*9907 FILLER_0_88_489
*9908 FILLER_0_88_501
*9909 FILLER_0_88_513
*9910 FILLER_0_88_525
*9911 FILLER_0_88_53
*9912 FILLER_0_88_531
*9913 FILLER_0_88_533
*9914 FILLER_0_88_545
*9915 FILLER_0_88_557
*9916 FILLER_0_88_569
*9917 FILLER_0_88_581
*9918 FILLER_0_88_587
*9919 FILLER_0_88_589
*9920 FILLER_0_88_601
*9921 FILLER_0_88_613
*9922 FILLER_0_88_625
*9923 FILLER_0_88_637
*9924 FILLER_0_88_643
*9925 FILLER_0_88_645
*9926 FILLER_0_88_65
*9927 FILLER_0_88_657
*9928 FILLER_0_88_669
*9929 FILLER_0_88_681
*9930 FILLER_0_88_693
*9931 FILLER_0_88_699
*9932 FILLER_0_88_701
*9933 FILLER_0_88_713
*9934 FILLER_0_88_725
*9935 FILLER_0_88_737
*9936 FILLER_0_88_749
*9937 FILLER_0_88_755
*9938 FILLER_0_88_757
*9939 FILLER_0_88_769
*9940 FILLER_0_88_77
*9941 FILLER_0_88_777
*9942 FILLER_0_88_83
*9943 FILLER_0_88_85
*9944 FILLER_0_88_97
*9945 FILLER_0_89_105
*9946 FILLER_0_89_111
*9947 FILLER_0_89_113
*9948 FILLER_0_89_125
*9949 FILLER_0_89_137
*9950 FILLER_0_89_149
*9951 FILLER_0_89_15
*9952 FILLER_0_89_161
*9953 FILLER_0_89_167
*9954 FILLER_0_89_169
*9955 FILLER_0_89_181
*9956 FILLER_0_89_193
*9957 FILLER_0_89_205
*9958 FILLER_0_89_217
*9959 FILLER_0_89_223
*9960 FILLER_0_89_225
*9961 FILLER_0_89_237
*9962 FILLER_0_89_249
*9963 FILLER_0_89_261
*9964 FILLER_0_89_27
*9965 FILLER_0_89_273
*9966 FILLER_0_89_279
*9967 FILLER_0_89_281
*9968 FILLER_0_89_293
*9969 FILLER_0_89_3
*9970 FILLER_0_89_305
*9971 FILLER_0_89_317
*9972 FILLER_0_89_329
*9973 FILLER_0_89_335
*9974 FILLER_0_89_337
*9975 FILLER_0_89_349
*9976 FILLER_0_89_361
*9977 FILLER_0_89_373
*9978 FILLER_0_89_385
*9979 FILLER_0_89_39
*9980 FILLER_0_89_391
*9981 FILLER_0_89_393
*9982 FILLER_0_89_405
*9983 FILLER_0_89_417
*9984 FILLER_0_89_429
*9985 FILLER_0_89_441
*9986 FILLER_0_89_447
*9987 FILLER_0_89_449
*9988 FILLER_0_89_461
*9989 FILLER_0_89_473
*9990 FILLER_0_89_485
*9991 FILLER_0_89_497
*9992 FILLER_0_89_503
*9993 FILLER_0_89_505
*9994 FILLER_0_89_51
*9995 FILLER_0_89_517
*9996 FILLER_0_89_529
*9997 FILLER_0_89_541
*9998 FILLER_0_89_55
*9999 FILLER_0_89_553
*10000 FILLER_0_89_559
*10001 FILLER_0_89_561
*10002 FILLER_0_89_57
*10003 FILLER_0_89_573
*10004 FILLER_0_89_585
*10005 FILLER_0_89_597
*10006 FILLER_0_89_609
*10007 FILLER_0_89_615
*10008 FILLER_0_89_617
*10009 FILLER_0_89_629
*10010 FILLER_0_89_641
*10011 FILLER_0_89_653
*10012 FILLER_0_89_665
*10013 FILLER_0_89_671
*10014 FILLER_0_89_673
*10015 FILLER_0_89_685
*10016 FILLER_0_89_69
*10017 FILLER_0_89_697
*10018 FILLER_0_89_709
*10019 FILLER_0_89_721
*10020 FILLER_0_89_727
*10021 FILLER_0_89_729
*10022 FILLER_0_89_741
*10023 FILLER_0_89_753
*10024 FILLER_0_89_765
*10025 FILLER_0_89_777
*10026 FILLER_0_89_81
*10027 FILLER_0_89_93
*10028 FILLER_0_8_109
*10029 FILLER_0_8_121
*10030 FILLER_0_8_133
*10031 FILLER_0_8_139
*10032 FILLER_0_8_141
*10033 FILLER_0_8_15
*10034 FILLER_0_8_153
*10035 FILLER_0_8_165
*10036 FILLER_0_8_177
*10037 FILLER_0_8_189
*10038 FILLER_0_8_195
*10039 FILLER_0_8_197
*10040 FILLER_0_8_209
*10041 FILLER_0_8_221
*10042 FILLER_0_8_233
*10043 FILLER_0_8_245
*10044 FILLER_0_8_251
*10045 FILLER_0_8_253
*10046 FILLER_0_8_265
*10047 FILLER_0_8_27
*10048 FILLER_0_8_277
*10049 FILLER_0_8_289
*10050 FILLER_0_8_29
*10051 FILLER_0_8_3
*10052 FILLER_0_8_301
*10053 FILLER_0_8_307
*10054 FILLER_0_8_309
*10055 FILLER_0_8_321
*10056 FILLER_0_8_333
*10057 FILLER_0_8_345
*10058 FILLER_0_8_357
*10059 FILLER_0_8_363
*10060 FILLER_0_8_365
*10061 FILLER_0_8_377
*10062 FILLER_0_8_389
*10063 FILLER_0_8_401
*10064 FILLER_0_8_41
*10065 FILLER_0_8_413
*10066 FILLER_0_8_419
*10067 FILLER_0_8_421
*10068 FILLER_0_8_433
*10069 FILLER_0_8_445
*10070 FILLER_0_8_457
*10071 FILLER_0_8_469
*10072 FILLER_0_8_475
*10073 FILLER_0_8_477
*10074 FILLER_0_8_489
*10075 FILLER_0_8_501
*10076 FILLER_0_8_513
*10077 FILLER_0_8_525
*10078 FILLER_0_8_53
*10079 FILLER_0_8_531
*10080 FILLER_0_8_533
*10081 FILLER_0_8_545
*10082 FILLER_0_8_557
*10083 FILLER_0_8_569
*10084 FILLER_0_8_581
*10085 FILLER_0_8_587
*10086 FILLER_0_8_589
*10087 FILLER_0_8_601
*10088 FILLER_0_8_613
*10089 FILLER_0_8_625
*10090 FILLER_0_8_637
*10091 FILLER_0_8_643
*10092 FILLER_0_8_645
*10093 FILLER_0_8_65
*10094 FILLER_0_8_657
*10095 FILLER_0_8_669
*10096 FILLER_0_8_681
*10097 FILLER_0_8_693
*10098 FILLER_0_8_699
*10099 FILLER_0_8_701
*10100 FILLER_0_8_713
*10101 FILLER_0_8_725
*10102 FILLER_0_8_737
*10103 FILLER_0_8_749
*10104 FILLER_0_8_755
*10105 FILLER_0_8_757
*10106 FILLER_0_8_769
*10107 FILLER_0_8_77
*10108 FILLER_0_8_777
*10109 FILLER_0_8_83
*10110 FILLER_0_8_85
*10111 FILLER_0_8_97
*10112 FILLER_0_90_109
*10113 FILLER_0_90_121
*10114 FILLER_0_90_133
*10115 FILLER_0_90_139
*10116 FILLER_0_90_141
*10117 FILLER_0_90_15
*10118 FILLER_0_90_153
*10119 FILLER_0_90_165
*10120 FILLER_0_90_177
*10121 FILLER_0_90_189
*10122 FILLER_0_90_195
*10123 FILLER_0_90_197
*10124 FILLER_0_90_209
*10125 FILLER_0_90_221
*10126 FILLER_0_90_233
*10127 FILLER_0_90_245
*10128 FILLER_0_90_251
*10129 FILLER_0_90_253
*10130 FILLER_0_90_265
*10131 FILLER_0_90_27
*10132 FILLER_0_90_277
*10133 FILLER_0_90_289
*10134 FILLER_0_90_29
*10135 FILLER_0_90_3
*10136 FILLER_0_90_301
*10137 FILLER_0_90_307
*10138 FILLER_0_90_309
*10139 FILLER_0_90_321
*10140 FILLER_0_90_333
*10141 FILLER_0_90_345
*10142 FILLER_0_90_357
*10143 FILLER_0_90_363
*10144 FILLER_0_90_365
*10145 FILLER_0_90_377
*10146 FILLER_0_90_389
*10147 FILLER_0_90_401
*10148 FILLER_0_90_41
*10149 FILLER_0_90_413
*10150 FILLER_0_90_419
*10151 FILLER_0_90_421
*10152 FILLER_0_90_433
*10153 FILLER_0_90_445
*10154 FILLER_0_90_457
*10155 FILLER_0_90_469
*10156 FILLER_0_90_475
*10157 FILLER_0_90_477
*10158 FILLER_0_90_489
*10159 FILLER_0_90_501
*10160 FILLER_0_90_513
*10161 FILLER_0_90_525
*10162 FILLER_0_90_53
*10163 FILLER_0_90_531
*10164 FILLER_0_90_533
*10165 FILLER_0_90_545
*10166 FILLER_0_90_557
*10167 FILLER_0_90_569
*10168 FILLER_0_90_581
*10169 FILLER_0_90_587
*10170 FILLER_0_90_589
*10171 FILLER_0_90_601
*10172 FILLER_0_90_613
*10173 FILLER_0_90_625
*10174 FILLER_0_90_637
*10175 FILLER_0_90_643
*10176 FILLER_0_90_645
*10177 FILLER_0_90_65
*10178 FILLER_0_90_657
*10179 FILLER_0_90_669
*10180 FILLER_0_90_681
*10181 FILLER_0_90_693
*10182 FILLER_0_90_699
*10183 FILLER_0_90_701
*10184 FILLER_0_90_713
*10185 FILLER_0_90_725
*10186 FILLER_0_90_737
*10187 FILLER_0_90_749
*10188 FILLER_0_90_755
*10189 FILLER_0_90_757
*10190 FILLER_0_90_769
*10191 FILLER_0_90_77
*10192 FILLER_0_90_777
*10193 FILLER_0_90_83
*10194 FILLER_0_90_85
*10195 FILLER_0_90_97
*10196 FILLER_0_91_105
*10197 FILLER_0_91_111
*10198 FILLER_0_91_113
*10199 FILLER_0_91_125
*10200 FILLER_0_91_137
*10201 FILLER_0_91_149
*10202 FILLER_0_91_15
*10203 FILLER_0_91_161
*10204 FILLER_0_91_167
*10205 FILLER_0_91_169
*10206 FILLER_0_91_181
*10207 FILLER_0_91_193
*10208 FILLER_0_91_205
*10209 FILLER_0_91_217
*10210 FILLER_0_91_223
*10211 FILLER_0_91_225
*10212 FILLER_0_91_237
*10213 FILLER_0_91_249
*10214 FILLER_0_91_261
*10215 FILLER_0_91_27
*10216 FILLER_0_91_273
*10217 FILLER_0_91_279
*10218 FILLER_0_91_281
*10219 FILLER_0_91_293
*10220 FILLER_0_91_3
*10221 FILLER_0_91_305
*10222 FILLER_0_91_317
*10223 FILLER_0_91_329
*10224 FILLER_0_91_335
*10225 FILLER_0_91_337
*10226 FILLER_0_91_349
*10227 FILLER_0_91_361
*10228 FILLER_0_91_373
*10229 FILLER_0_91_385
*10230 FILLER_0_91_39
*10231 FILLER_0_91_391
*10232 FILLER_0_91_393
*10233 FILLER_0_91_405
*10234 FILLER_0_91_417
*10235 FILLER_0_91_429
*10236 FILLER_0_91_441
*10237 FILLER_0_91_447
*10238 FILLER_0_91_449
*10239 FILLER_0_91_461
*10240 FILLER_0_91_473
*10241 FILLER_0_91_485
*10242 FILLER_0_91_497
*10243 FILLER_0_91_503
*10244 FILLER_0_91_505
*10245 FILLER_0_91_51
*10246 FILLER_0_91_517
*10247 FILLER_0_91_529
*10248 FILLER_0_91_541
*10249 FILLER_0_91_55
*10250 FILLER_0_91_553
*10251 FILLER_0_91_559
*10252 FILLER_0_91_561
*10253 FILLER_0_91_57
*10254 FILLER_0_91_573
*10255 FILLER_0_91_585
*10256 FILLER_0_91_597
*10257 FILLER_0_91_609
*10258 FILLER_0_91_615
*10259 FILLER_0_91_617
*10260 FILLER_0_91_629
*10261 FILLER_0_91_641
*10262 FILLER_0_91_653
*10263 FILLER_0_91_665
*10264 FILLER_0_91_671
*10265 FILLER_0_91_673
*10266 FILLER_0_91_685
*10267 FILLER_0_91_69
*10268 FILLER_0_91_697
*10269 FILLER_0_91_709
*10270 FILLER_0_91_721
*10271 FILLER_0_91_727
*10272 FILLER_0_91_729
*10273 FILLER_0_91_741
*10274 FILLER_0_91_753
*10275 FILLER_0_91_765
*10276 FILLER_0_91_777
*10277 FILLER_0_91_81
*10278 FILLER_0_91_93
*10279 FILLER_0_92_109
*10280 FILLER_0_92_121
*10281 FILLER_0_92_133
*10282 FILLER_0_92_139
*10283 FILLER_0_92_141
*10284 FILLER_0_92_15
*10285 FILLER_0_92_153
*10286 FILLER_0_92_165
*10287 FILLER_0_92_177
*10288 FILLER_0_92_189
*10289 FILLER_0_92_195
*10290 FILLER_0_92_197
*10291 FILLER_0_92_209
*10292 FILLER_0_92_221
*10293 FILLER_0_92_233
*10294 FILLER_0_92_245
*10295 FILLER_0_92_251
*10296 FILLER_0_92_253
*10297 FILLER_0_92_265
*10298 FILLER_0_92_27
*10299 FILLER_0_92_277
*10300 FILLER_0_92_289
*10301 FILLER_0_92_29
*10302 FILLER_0_92_3
*10303 FILLER_0_92_301
*10304 FILLER_0_92_307
*10305 FILLER_0_92_309
*10306 FILLER_0_92_321
*10307 FILLER_0_92_333
*10308 FILLER_0_92_345
*10309 FILLER_0_92_357
*10310 FILLER_0_92_363
*10311 FILLER_0_92_365
*10312 FILLER_0_92_377
*10313 FILLER_0_92_389
*10314 FILLER_0_92_401
*10315 FILLER_0_92_41
*10316 FILLER_0_92_413
*10317 FILLER_0_92_419
*10318 FILLER_0_92_421
*10319 FILLER_0_92_433
*10320 FILLER_0_92_445
*10321 FILLER_0_92_457
*10322 FILLER_0_92_469
*10323 FILLER_0_92_475
*10324 FILLER_0_92_477
*10325 FILLER_0_92_489
*10326 FILLER_0_92_501
*10327 FILLER_0_92_513
*10328 FILLER_0_92_525
*10329 FILLER_0_92_53
*10330 FILLER_0_92_531
*10331 FILLER_0_92_533
*10332 FILLER_0_92_545
*10333 FILLER_0_92_557
*10334 FILLER_0_92_569
*10335 FILLER_0_92_581
*10336 FILLER_0_92_587
*10337 FILLER_0_92_589
*10338 FILLER_0_92_601
*10339 FILLER_0_92_613
*10340 FILLER_0_92_625
*10341 FILLER_0_92_637
*10342 FILLER_0_92_643
*10343 FILLER_0_92_645
*10344 FILLER_0_92_65
*10345 FILLER_0_92_657
*10346 FILLER_0_92_669
*10347 FILLER_0_92_681
*10348 FILLER_0_92_693
*10349 FILLER_0_92_699
*10350 FILLER_0_92_701
*10351 FILLER_0_92_713
*10352 FILLER_0_92_725
*10353 FILLER_0_92_737
*10354 FILLER_0_92_749
*10355 FILLER_0_92_755
*10356 FILLER_0_92_757
*10357 FILLER_0_92_769
*10358 FILLER_0_92_77
*10359 FILLER_0_92_777
*10360 FILLER_0_92_83
*10361 FILLER_0_92_85
*10362 FILLER_0_92_97
*10363 FILLER_0_93_105
*10364 FILLER_0_93_111
*10365 FILLER_0_93_113
*10366 FILLER_0_93_125
*10367 FILLER_0_93_137
*10368 FILLER_0_93_149
*10369 FILLER_0_93_15
*10370 FILLER_0_93_161
*10371 FILLER_0_93_167
*10372 FILLER_0_93_169
*10373 FILLER_0_93_181
*10374 FILLER_0_93_193
*10375 FILLER_0_93_205
*10376 FILLER_0_93_217
*10377 FILLER_0_93_223
*10378 FILLER_0_93_225
*10379 FILLER_0_93_237
*10380 FILLER_0_93_249
*10381 FILLER_0_93_261
*10382 FILLER_0_93_27
*10383 FILLER_0_93_273
*10384 FILLER_0_93_279
*10385 FILLER_0_93_281
*10386 FILLER_0_93_293
*10387 FILLER_0_93_3
*10388 FILLER_0_93_305
*10389 FILLER_0_93_317
*10390 FILLER_0_93_329
*10391 FILLER_0_93_335
*10392 FILLER_0_93_337
*10393 FILLER_0_93_349
*10394 FILLER_0_93_361
*10395 FILLER_0_93_373
*10396 FILLER_0_93_385
*10397 FILLER_0_93_39
*10398 FILLER_0_93_391
*10399 FILLER_0_93_393
*10400 FILLER_0_93_405
*10401 FILLER_0_93_417
*10402 FILLER_0_93_429
*10403 FILLER_0_93_441
*10404 FILLER_0_93_447
*10405 FILLER_0_93_449
*10406 FILLER_0_93_461
*10407 FILLER_0_93_473
*10408 FILLER_0_93_485
*10409 FILLER_0_93_497
*10410 FILLER_0_93_503
*10411 FILLER_0_93_505
*10412 FILLER_0_93_51
*10413 FILLER_0_93_517
*10414 FILLER_0_93_529
*10415 FILLER_0_93_541
*10416 FILLER_0_93_55
*10417 FILLER_0_93_553
*10418 FILLER_0_93_559
*10419 FILLER_0_93_561
*10420 FILLER_0_93_57
*10421 FILLER_0_93_573
*10422 FILLER_0_93_585
*10423 FILLER_0_93_597
*10424 FILLER_0_93_609
*10425 FILLER_0_93_615
*10426 FILLER_0_93_617
*10427 FILLER_0_93_629
*10428 FILLER_0_93_641
*10429 FILLER_0_93_653
*10430 FILLER_0_93_665
*10431 FILLER_0_93_671
*10432 FILLER_0_93_673
*10433 FILLER_0_93_685
*10434 FILLER_0_93_69
*10435 FILLER_0_93_697
*10436 FILLER_0_93_709
*10437 FILLER_0_93_721
*10438 FILLER_0_93_727
*10439 FILLER_0_93_729
*10440 FILLER_0_93_741
*10441 FILLER_0_93_753
*10442 FILLER_0_93_765
*10443 FILLER_0_93_777
*10444 FILLER_0_93_81
*10445 FILLER_0_93_93
*10446 FILLER_0_94_109
*10447 FILLER_0_94_121
*10448 FILLER_0_94_133
*10449 FILLER_0_94_139
*10450 FILLER_0_94_141
*10451 FILLER_0_94_15
*10452 FILLER_0_94_153
*10453 FILLER_0_94_165
*10454 FILLER_0_94_177
*10455 FILLER_0_94_189
*10456 FILLER_0_94_195
*10457 FILLER_0_94_197
*10458 FILLER_0_94_209
*10459 FILLER_0_94_221
*10460 FILLER_0_94_233
*10461 FILLER_0_94_245
*10462 FILLER_0_94_251
*10463 FILLER_0_94_253
*10464 FILLER_0_94_265
*10465 FILLER_0_94_27
*10466 FILLER_0_94_277
*10467 FILLER_0_94_289
*10468 FILLER_0_94_29
*10469 FILLER_0_94_3
*10470 FILLER_0_94_301
*10471 FILLER_0_94_307
*10472 FILLER_0_94_309
*10473 FILLER_0_94_321
*10474 FILLER_0_94_333
*10475 FILLER_0_94_345
*10476 FILLER_0_94_357
*10477 FILLER_0_94_363
*10478 FILLER_0_94_365
*10479 FILLER_0_94_377
*10480 FILLER_0_94_389
*10481 FILLER_0_94_401
*10482 FILLER_0_94_41
*10483 FILLER_0_94_413
*10484 FILLER_0_94_419
*10485 FILLER_0_94_421
*10486 FILLER_0_94_433
*10487 FILLER_0_94_445
*10488 FILLER_0_94_457
*10489 FILLER_0_94_469
*10490 FILLER_0_94_475
*10491 FILLER_0_94_477
*10492 FILLER_0_94_489
*10493 FILLER_0_94_501
*10494 FILLER_0_94_513
*10495 FILLER_0_94_525
*10496 FILLER_0_94_53
*10497 FILLER_0_94_531
*10498 FILLER_0_94_533
*10499 FILLER_0_94_545
*10500 FILLER_0_94_557
*10501 FILLER_0_94_569
*10502 FILLER_0_94_581
*10503 FILLER_0_94_587
*10504 FILLER_0_94_589
*10505 FILLER_0_94_601
*10506 FILLER_0_94_613
*10507 FILLER_0_94_625
*10508 FILLER_0_94_637
*10509 FILLER_0_94_643
*10510 FILLER_0_94_645
*10511 FILLER_0_94_65
*10512 FILLER_0_94_657
*10513 FILLER_0_94_669
*10514 FILLER_0_94_681
*10515 FILLER_0_94_693
*10516 FILLER_0_94_699
*10517 FILLER_0_94_701
*10518 FILLER_0_94_713
*10519 FILLER_0_94_725
*10520 FILLER_0_94_737
*10521 FILLER_0_94_749
*10522 FILLER_0_94_755
*10523 FILLER_0_94_757
*10524 FILLER_0_94_769
*10525 FILLER_0_94_77
*10526 FILLER_0_94_777
*10527 FILLER_0_94_83
*10528 FILLER_0_94_85
*10529 FILLER_0_94_97
*10530 FILLER_0_95_105
*10531 FILLER_0_95_111
*10532 FILLER_0_95_113
*10533 FILLER_0_95_125
*10534 FILLER_0_95_137
*10535 FILLER_0_95_149
*10536 FILLER_0_95_15
*10537 FILLER_0_95_161
*10538 FILLER_0_95_167
*10539 FILLER_0_95_169
*10540 FILLER_0_95_181
*10541 FILLER_0_95_193
*10542 FILLER_0_95_205
*10543 FILLER_0_95_217
*10544 FILLER_0_95_223
*10545 FILLER_0_95_225
*10546 FILLER_0_95_237
*10547 FILLER_0_95_249
*10548 FILLER_0_95_261
*10549 FILLER_0_95_27
*10550 FILLER_0_95_273
*10551 FILLER_0_95_279
*10552 FILLER_0_95_281
*10553 FILLER_0_95_293
*10554 FILLER_0_95_3
*10555 FILLER_0_95_305
*10556 FILLER_0_95_317
*10557 FILLER_0_95_329
*10558 FILLER_0_95_335
*10559 FILLER_0_95_337
*10560 FILLER_0_95_349
*10561 FILLER_0_95_361
*10562 FILLER_0_95_373
*10563 FILLER_0_95_385
*10564 FILLER_0_95_39
*10565 FILLER_0_95_391
*10566 FILLER_0_95_393
*10567 FILLER_0_95_405
*10568 FILLER_0_95_417
*10569 FILLER_0_95_429
*10570 FILLER_0_95_441
*10571 FILLER_0_95_447
*10572 FILLER_0_95_449
*10573 FILLER_0_95_461
*10574 FILLER_0_95_473
*10575 FILLER_0_95_485
*10576 FILLER_0_95_497
*10577 FILLER_0_95_503
*10578 FILLER_0_95_505
*10579 FILLER_0_95_51
*10580 FILLER_0_95_517
*10581 FILLER_0_95_529
*10582 FILLER_0_95_541
*10583 FILLER_0_95_55
*10584 FILLER_0_95_553
*10585 FILLER_0_95_559
*10586 FILLER_0_95_561
*10587 FILLER_0_95_57
*10588 FILLER_0_95_573
*10589 FILLER_0_95_585
*10590 FILLER_0_95_597
*10591 FILLER_0_95_609
*10592 FILLER_0_95_615
*10593 FILLER_0_95_617
*10594 FILLER_0_95_629
*10595 FILLER_0_95_641
*10596 FILLER_0_95_653
*10597 FILLER_0_95_665
*10598 FILLER_0_95_671
*10599 FILLER_0_95_673
*10600 FILLER_0_95_685
*10601 FILLER_0_95_69
*10602 FILLER_0_95_697
*10603 FILLER_0_95_709
*10604 FILLER_0_95_721
*10605 FILLER_0_95_727
*10606 FILLER_0_95_729
*10607 FILLER_0_95_741
*10608 FILLER_0_95_753
*10609 FILLER_0_95_765
*10610 FILLER_0_95_777
*10611 FILLER_0_95_81
*10612 FILLER_0_95_93
*10613 FILLER_0_96_109
*10614 FILLER_0_96_121
*10615 FILLER_0_96_133
*10616 FILLER_0_96_139
*10617 FILLER_0_96_141
*10618 FILLER_0_96_15
*10619 FILLER_0_96_153
*10620 FILLER_0_96_165
*10621 FILLER_0_96_177
*10622 FILLER_0_96_189
*10623 FILLER_0_96_195
*10624 FILLER_0_96_197
*10625 FILLER_0_96_209
*10626 FILLER_0_96_221
*10627 FILLER_0_96_233
*10628 FILLER_0_96_245
*10629 FILLER_0_96_251
*10630 FILLER_0_96_253
*10631 FILLER_0_96_265
*10632 FILLER_0_96_27
*10633 FILLER_0_96_277
*10634 FILLER_0_96_289
*10635 FILLER_0_96_29
*10636 FILLER_0_96_3
*10637 FILLER_0_96_301
*10638 FILLER_0_96_307
*10639 FILLER_0_96_309
*10640 FILLER_0_96_321
*10641 FILLER_0_96_333
*10642 FILLER_0_96_345
*10643 FILLER_0_96_357
*10644 FILLER_0_96_363
*10645 FILLER_0_96_365
*10646 FILLER_0_96_377
*10647 FILLER_0_96_389
*10648 FILLER_0_96_401
*10649 FILLER_0_96_41
*10650 FILLER_0_96_413
*10651 FILLER_0_96_419
*10652 FILLER_0_96_421
*10653 FILLER_0_96_433
*10654 FILLER_0_96_445
*10655 FILLER_0_96_457
*10656 FILLER_0_96_469
*10657 FILLER_0_96_475
*10658 FILLER_0_96_477
*10659 FILLER_0_96_489
*10660 FILLER_0_96_501
*10661 FILLER_0_96_513
*10662 FILLER_0_96_525
*10663 FILLER_0_96_53
*10664 FILLER_0_96_531
*10665 FILLER_0_96_533
*10666 FILLER_0_96_545
*10667 FILLER_0_96_557
*10668 FILLER_0_96_569
*10669 FILLER_0_96_581
*10670 FILLER_0_96_587
*10671 FILLER_0_96_589
*10672 FILLER_0_96_601
*10673 FILLER_0_96_613
*10674 FILLER_0_96_625
*10675 FILLER_0_96_637
*10676 FILLER_0_96_643
*10677 FILLER_0_96_645
*10678 FILLER_0_96_65
*10679 FILLER_0_96_657
*10680 FILLER_0_96_669
*10681 FILLER_0_96_681
*10682 FILLER_0_96_693
*10683 FILLER_0_96_699
*10684 FILLER_0_96_701
*10685 FILLER_0_96_713
*10686 FILLER_0_96_725
*10687 FILLER_0_96_737
*10688 FILLER_0_96_749
*10689 FILLER_0_96_755
*10690 FILLER_0_96_757
*10691 FILLER_0_96_769
*10692 FILLER_0_96_77
*10693 FILLER_0_96_777
*10694 FILLER_0_96_83
*10695 FILLER_0_96_85
*10696 FILLER_0_96_97
*10697 FILLER_0_97_105
*10698 FILLER_0_97_111
*10699 FILLER_0_97_113
*10700 FILLER_0_97_125
*10701 FILLER_0_97_137
*10702 FILLER_0_97_149
*10703 FILLER_0_97_15
*10704 FILLER_0_97_161
*10705 FILLER_0_97_167
*10706 FILLER_0_97_169
*10707 FILLER_0_97_181
*10708 FILLER_0_97_193
*10709 FILLER_0_97_205
*10710 FILLER_0_97_217
*10711 FILLER_0_97_223
*10712 FILLER_0_97_225
*10713 FILLER_0_97_237
*10714 FILLER_0_97_249
*10715 FILLER_0_97_261
*10716 FILLER_0_97_27
*10717 FILLER_0_97_273
*10718 FILLER_0_97_279
*10719 FILLER_0_97_281
*10720 FILLER_0_97_293
*10721 FILLER_0_97_3
*10722 FILLER_0_97_305
*10723 FILLER_0_97_317
*10724 FILLER_0_97_329
*10725 FILLER_0_97_335
*10726 FILLER_0_97_337
*10727 FILLER_0_97_349
*10728 FILLER_0_97_361
*10729 FILLER_0_97_373
*10730 FILLER_0_97_385
*10731 FILLER_0_97_39
*10732 FILLER_0_97_391
*10733 FILLER_0_97_393
*10734 FILLER_0_97_405
*10735 FILLER_0_97_417
*10736 FILLER_0_97_429
*10737 FILLER_0_97_441
*10738 FILLER_0_97_447
*10739 FILLER_0_97_449
*10740 FILLER_0_97_461
*10741 FILLER_0_97_473
*10742 FILLER_0_97_485
*10743 FILLER_0_97_497
*10744 FILLER_0_97_503
*10745 FILLER_0_97_505
*10746 FILLER_0_97_51
*10747 FILLER_0_97_517
*10748 FILLER_0_97_529
*10749 FILLER_0_97_541
*10750 FILLER_0_97_55
*10751 FILLER_0_97_553
*10752 FILLER_0_97_559
*10753 FILLER_0_97_561
*10754 FILLER_0_97_57
*10755 FILLER_0_97_573
*10756 FILLER_0_97_585
*10757 FILLER_0_97_597
*10758 FILLER_0_97_609
*10759 FILLER_0_97_615
*10760 FILLER_0_97_617
*10761 FILLER_0_97_629
*10762 FILLER_0_97_641
*10763 FILLER_0_97_653
*10764 FILLER_0_97_665
*10765 FILLER_0_97_671
*10766 FILLER_0_97_673
*10767 FILLER_0_97_685
*10768 FILLER_0_97_69
*10769 FILLER_0_97_697
*10770 FILLER_0_97_709
*10771 FILLER_0_97_721
*10772 FILLER_0_97_727
*10773 FILLER_0_97_729
*10774 FILLER_0_97_741
*10775 FILLER_0_97_753
*10776 FILLER_0_97_765
*10777 FILLER_0_97_777
*10778 FILLER_0_97_81
*10779 FILLER_0_97_93
*10780 FILLER_0_98_109
*10781 FILLER_0_98_121
*10782 FILLER_0_98_133
*10783 FILLER_0_98_139
*10784 FILLER_0_98_141
*10785 FILLER_0_98_15
*10786 FILLER_0_98_153
*10787 FILLER_0_98_165
*10788 FILLER_0_98_177
*10789 FILLER_0_98_189
*10790 FILLER_0_98_195
*10791 FILLER_0_98_197
*10792 FILLER_0_98_209
*10793 FILLER_0_98_221
*10794 FILLER_0_98_233
*10795 FILLER_0_98_245
*10796 FILLER_0_98_251
*10797 FILLER_0_98_253
*10798 FILLER_0_98_265
*10799 FILLER_0_98_27
*10800 FILLER_0_98_277
*10801 FILLER_0_98_289
*10802 FILLER_0_98_29
*10803 FILLER_0_98_3
*10804 FILLER_0_98_301
*10805 FILLER_0_98_307
*10806 FILLER_0_98_309
*10807 FILLER_0_98_321
*10808 FILLER_0_98_333
*10809 FILLER_0_98_345
*10810 FILLER_0_98_357
*10811 FILLER_0_98_363
*10812 FILLER_0_98_365
*10813 FILLER_0_98_377
*10814 FILLER_0_98_389
*10815 FILLER_0_98_401
*10816 FILLER_0_98_41
*10817 FILLER_0_98_413
*10818 FILLER_0_98_419
*10819 FILLER_0_98_421
*10820 FILLER_0_98_433
*10821 FILLER_0_98_445
*10822 FILLER_0_98_457
*10823 FILLER_0_98_469
*10824 FILLER_0_98_475
*10825 FILLER_0_98_477
*10826 FILLER_0_98_489
*10827 FILLER_0_98_501
*10828 FILLER_0_98_513
*10829 FILLER_0_98_525
*10830 FILLER_0_98_53
*10831 FILLER_0_98_531
*10832 FILLER_0_98_533
*10833 FILLER_0_98_545
*10834 FILLER_0_98_557
*10835 FILLER_0_98_569
*10836 FILLER_0_98_581
*10837 FILLER_0_98_587
*10838 FILLER_0_98_589
*10839 FILLER_0_98_601
*10840 FILLER_0_98_613
*10841 FILLER_0_98_625
*10842 FILLER_0_98_637
*10843 FILLER_0_98_643
*10844 FILLER_0_98_645
*10845 FILLER_0_98_65
*10846 FILLER_0_98_657
*10847 FILLER_0_98_669
*10848 FILLER_0_98_681
*10849 FILLER_0_98_693
*10850 FILLER_0_98_699
*10851 FILLER_0_98_701
*10852 FILLER_0_98_713
*10853 FILLER_0_98_725
*10854 FILLER_0_98_737
*10855 FILLER_0_98_749
*10856 FILLER_0_98_755
*10857 FILLER_0_98_757
*10858 FILLER_0_98_769
*10859 FILLER_0_98_77
*10860 FILLER_0_98_777
*10861 FILLER_0_98_83
*10862 FILLER_0_98_85
*10863 FILLER_0_98_97
*10864 FILLER_0_99_105
*10865 FILLER_0_99_111
*10866 FILLER_0_99_113
*10867 FILLER_0_99_125
*10868 FILLER_0_99_137
*10869 FILLER_0_99_149
*10870 FILLER_0_99_15
*10871 FILLER_0_99_161
*10872 FILLER_0_99_167
*10873 FILLER_0_99_169
*10874 FILLER_0_99_181
*10875 FILLER_0_99_193
*10876 FILLER_0_99_205
*10877 FILLER_0_99_217
*10878 FILLER_0_99_223
*10879 FILLER_0_99_225
*10880 FILLER_0_99_237
*10881 FILLER_0_99_249
*10882 FILLER_0_99_261
*10883 FILLER_0_99_27
*10884 FILLER_0_99_273
*10885 FILLER_0_99_279
*10886 FILLER_0_99_281
*10887 FILLER_0_99_293
*10888 FILLER_0_99_3
*10889 FILLER_0_99_305
*10890 FILLER_0_99_317
*10891 FILLER_0_99_329
*10892 FILLER_0_99_335
*10893 FILLER_0_99_337
*10894 FILLER_0_99_349
*10895 FILLER_0_99_361
*10896 FILLER_0_99_373
*10897 FILLER_0_99_385
*10898 FILLER_0_99_39
*10899 FILLER_0_99_391
*10900 FILLER_0_99_393
*10901 FILLER_0_99_405
*10902 FILLER_0_99_417
*10903 FILLER_0_99_429
*10904 FILLER_0_99_441
*10905 FILLER_0_99_447
*10906 FILLER_0_99_449
*10907 FILLER_0_99_461
*10908 FILLER_0_99_473
*10909 FILLER_0_99_485
*10910 FILLER_0_99_497
*10911 FILLER_0_99_503
*10912 FILLER_0_99_505
*10913 FILLER_0_99_51
*10914 FILLER_0_99_517
*10915 FILLER_0_99_529
*10916 FILLER_0_99_541
*10917 FILLER_0_99_55
*10918 FILLER_0_99_553
*10919 FILLER_0_99_559
*10920 FILLER_0_99_561
*10921 FILLER_0_99_57
*10922 FILLER_0_99_573
*10923 FILLER_0_99_585
*10924 FILLER_0_99_597
*10925 FILLER_0_99_609
*10926 FILLER_0_99_615
*10927 FILLER_0_99_617
*10928 FILLER_0_99_629
*10929 FILLER_0_99_641
*10930 FILLER_0_99_653
*10931 FILLER_0_99_665
*10932 FILLER_0_99_671
*10933 FILLER_0_99_673
*10934 FILLER_0_99_685
*10935 FILLER_0_99_69
*10936 FILLER_0_99_697
*10937 FILLER_0_99_709
*10938 FILLER_0_99_721
*10939 FILLER_0_99_727
*10940 FILLER_0_99_729
*10941 FILLER_0_99_741
*10942 FILLER_0_99_753
*10943 FILLER_0_99_765
*10944 FILLER_0_99_777
*10945 FILLER_0_99_81
*10946 FILLER_0_99_93
*10947 FILLER_0_9_105
*10948 FILLER_0_9_111
*10949 FILLER_0_9_113
*10950 FILLER_0_9_125
*10951 FILLER_0_9_137
*10952 FILLER_0_9_149
*10953 FILLER_0_9_15
*10954 FILLER_0_9_161
*10955 FILLER_0_9_167
*10956 FILLER_0_9_169
*10957 FILLER_0_9_181
*10958 FILLER_0_9_193
*10959 FILLER_0_9_205
*10960 FILLER_0_9_217
*10961 FILLER_0_9_223
*10962 FILLER_0_9_225
*10963 FILLER_0_9_237
*10964 FILLER_0_9_249
*10965 FILLER_0_9_261
*10966 FILLER_0_9_27
*10967 FILLER_0_9_273
*10968 FILLER_0_9_279
*10969 FILLER_0_9_281
*10970 FILLER_0_9_293
*10971 FILLER_0_9_3
*10972 FILLER_0_9_305
*10973 FILLER_0_9_317
*10974 FILLER_0_9_329
*10975 FILLER_0_9_335
*10976 FILLER_0_9_337
*10977 FILLER_0_9_349
*10978 FILLER_0_9_361
*10979 FILLER_0_9_373
*10980 FILLER_0_9_385
*10981 FILLER_0_9_39
*10982 FILLER_0_9_391
*10983 FILLER_0_9_393
*10984 FILLER_0_9_405
*10985 FILLER_0_9_417
*10986 FILLER_0_9_429
*10987 FILLER_0_9_441
*10988 FILLER_0_9_447
*10989 FILLER_0_9_449
*10990 FILLER_0_9_461
*10991 FILLER_0_9_473
*10992 FILLER_0_9_485
*10993 FILLER_0_9_497
*10994 FILLER_0_9_503
*10995 FILLER_0_9_505
*10996 FILLER_0_9_51
*10997 FILLER_0_9_517
*10998 FILLER_0_9_529
*10999 FILLER_0_9_541
*11000 FILLER_0_9_55
*11001 FILLER_0_9_553
*11002 FILLER_0_9_559
*11003 FILLER_0_9_561
*11004 FILLER_0_9_57
*11005 FILLER_0_9_573
*11006 FILLER_0_9_585
*11007 FILLER_0_9_597
*11008 FILLER_0_9_609
*11009 FILLER_0_9_615
*11010 FILLER_0_9_617
*11011 FILLER_0_9_629
*11012 FILLER_0_9_641
*11013 FILLER_0_9_653
*11014 FILLER_0_9_665
*11015 FILLER_0_9_671
*11016 FILLER_0_9_673
*11017 FILLER_0_9_685
*11018 FILLER_0_9_69
*11019 FILLER_0_9_697
*11020 FILLER_0_9_709
*11021 FILLER_0_9_721
*11022 FILLER_0_9_727
*11023 FILLER_0_9_729
*11024 FILLER_0_9_741
*11025 FILLER_0_9_753
*11026 FILLER_0_9_765
*11027 FILLER_0_9_777
*11028 FILLER_0_9_81
*11029 FILLER_0_9_93
*11030 PHY_0
*11031 PHY_1
*11032 PHY_10
*11033 PHY_100
*11034 PHY_101
*11035 PHY_102
*11036 PHY_103
*11037 PHY_104
*11038 PHY_105
*11039 PHY_106
*11040 PHY_107
*11041 PHY_108
*11042 PHY_109
*11043 PHY_11
*11044 PHY_110
*11045 PHY_111
*11046 PHY_112
*11047 PHY_113
*11048 PHY_114
*11049 PHY_115
*11050 PHY_116
*11051 PHY_117
*11052 PHY_118
*11053 PHY_119
*11054 PHY_12
*11055 PHY_120
*11056 PHY_121
*11057 PHY_122
*11058 PHY_123
*11059 PHY_124
*11060 PHY_125
*11061 PHY_126
*11062 PHY_127
*11063 PHY_128
*11064 PHY_129
*11065 PHY_13
*11066 PHY_130
*11067 PHY_131
*11068 PHY_132
*11069 PHY_133
*11070 PHY_134
*11071 PHY_135
*11072 PHY_136
*11073 PHY_137
*11074 PHY_138
*11075 PHY_139
*11076 PHY_14
*11077 PHY_140
*11078 PHY_141
*11079 PHY_142
*11080 PHY_143
*11081 PHY_144
*11082 PHY_145
*11083 PHY_146
*11084 PHY_147
*11085 PHY_148
*11086 PHY_149
*11087 PHY_15
*11088 PHY_150
*11089 PHY_151
*11090 PHY_152
*11091 PHY_153
*11092 PHY_154
*11093 PHY_155
*11094 PHY_156
*11095 PHY_157
*11096 PHY_158
*11097 PHY_159
*11098 PHY_16
*11099 PHY_160
*11100 PHY_161
*11101 PHY_162
*11102 PHY_163
*11103 PHY_164
*11104 PHY_165
*11105 PHY_166
*11106 PHY_167
*11107 PHY_168
*11108 PHY_169
*11109 PHY_17
*11110 PHY_170
*11111 PHY_171
*11112 PHY_172
*11113 PHY_173
*11114 PHY_174
*11115 PHY_175
*11116 PHY_176
*11117 PHY_177
*11118 PHY_178
*11119 PHY_179
*11120 PHY_18
*11121 PHY_180
*11122 PHY_181
*11123 PHY_182
*11124 PHY_183
*11125 PHY_184
*11126 PHY_185
*11127 PHY_186
*11128 PHY_187
*11129 PHY_188
*11130 PHY_189
*11131 PHY_19
*11132 PHY_190
*11133 PHY_191
*11134 PHY_192
*11135 PHY_193
*11136 PHY_194
*11137 PHY_195
*11138 PHY_196
*11139 PHY_197
*11140 PHY_198
*11141 PHY_199
*11142 PHY_2
*11143 PHY_20
*11144 PHY_200
*11145 PHY_201
*11146 PHY_202
*11147 PHY_203
*11148 PHY_204
*11149 PHY_205
*11150 PHY_206
*11151 PHY_207
*11152 PHY_208
*11153 PHY_209
*11154 PHY_21
*11155 PHY_210
*11156 PHY_211
*11157 PHY_212
*11158 PHY_213
*11159 PHY_214
*11160 PHY_215
*11161 PHY_216
*11162 PHY_217
*11163 PHY_218
*11164 PHY_219
*11165 PHY_22
*11166 PHY_220
*11167 PHY_221
*11168 PHY_222
*11169 PHY_223
*11170 PHY_224
*11171 PHY_225
*11172 PHY_226
*11173 PHY_227
*11174 PHY_228
*11175 PHY_229
*11176 PHY_23
*11177 PHY_230
*11178 PHY_231
*11179 PHY_232
*11180 PHY_233
*11181 PHY_234
*11182 PHY_235
*11183 PHY_236
*11184 PHY_237
*11185 PHY_238
*11186 PHY_239
*11187 PHY_24
*11188 PHY_240
*11189 PHY_241
*11190 PHY_242
*11191 PHY_243
*11192 PHY_244
*11193 PHY_245
*11194 PHY_246
*11195 PHY_247
*11196 PHY_248
*11197 PHY_249
*11198 PHY_25
*11199 PHY_250
*11200 PHY_251
*11201 PHY_252
*11202 PHY_253
*11203 PHY_254
*11204 PHY_255
*11205 PHY_256
*11206 PHY_257
*11207 PHY_258
*11208 PHY_259
*11209 PHY_26
*11210 PHY_260
*11211 PHY_261
*11212 PHY_27
*11213 PHY_28
*11214 PHY_29
*11215 PHY_3
*11216 PHY_30
*11217 PHY_31
*11218 PHY_32
*11219 PHY_33
*11220 PHY_34
*11221 PHY_35
*11222 PHY_36
*11223 PHY_37
*11224 PHY_38
*11225 PHY_39
*11226 PHY_4
*11227 PHY_40
*11228 PHY_41
*11229 PHY_42
*11230 PHY_43
*11231 PHY_44
*11232 PHY_45
*11233 PHY_46
*11234 PHY_47
*11235 PHY_48
*11236 PHY_49
*11237 PHY_5
*11238 PHY_50
*11239 PHY_51
*11240 PHY_52
*11241 PHY_53
*11242 PHY_54
*11243 PHY_55
*11244 PHY_56
*11245 PHY_57
*11246 PHY_58
*11247 PHY_59
*11248 PHY_6
*11249 PHY_60
*11250 PHY_61
*11251 PHY_62
*11252 PHY_63
*11253 PHY_64
*11254 PHY_65
*11255 PHY_66
*11256 PHY_67
*11257 PHY_68
*11258 PHY_69
*11259 PHY_7
*11260 PHY_70
*11261 PHY_71
*11262 PHY_72
*11263 PHY_73
*11264 PHY_74
*11265 PHY_75
*11266 PHY_76
*11267 PHY_77
*11268 PHY_78
*11269 PHY_79
*11270 PHY_8
*11271 PHY_80
*11272 PHY_81
*11273 PHY_82
*11274 PHY_83
*11275 PHY_84
*11276 PHY_85
*11277 PHY_86
*11278 PHY_87
*11279 PHY_88
*11280 PHY_89
*11281 PHY_9
*11282 PHY_90
*11283 PHY_91
*11284 PHY_92
*11285 PHY_93
*11286 PHY_94
*11287 PHY_95
*11288 PHY_96
*11289 PHY_97
*11290 PHY_98
*11291 PHY_99
*11292 TAP_1000
*11293 TAP_1001
*11294 TAP_1002
*11295 TAP_1003
*11296 TAP_1004
*11297 TAP_1005
*11298 TAP_1006
*11299 TAP_1007
*11300 TAP_1008
*11301 TAP_1009
*11302 TAP_1010
*11303 TAP_1011
*11304 TAP_1012
*11305 TAP_1013
*11306 TAP_1014
*11307 TAP_1015
*11308 TAP_1016
*11309 TAP_1017
*11310 TAP_1018
*11311 TAP_1019
*11312 TAP_1020
*11313 TAP_1021
*11314 TAP_1022
*11315 TAP_1023
*11316 TAP_1024
*11317 TAP_1025
*11318 TAP_1026
*11319 TAP_1027
*11320 TAP_1028
*11321 TAP_1029
*11322 TAP_1030
*11323 TAP_1031
*11324 TAP_1032
*11325 TAP_1033
*11326 TAP_1034
*11327 TAP_1035
*11328 TAP_1036
*11329 TAP_1037
*11330 TAP_1038
*11331 TAP_1039
*11332 TAP_1040
*11333 TAP_1041
*11334 TAP_1042
*11335 TAP_1043
*11336 TAP_1044
*11337 TAP_1045
*11338 TAP_1046
*11339 TAP_1047
*11340 TAP_1048
*11341 TAP_1049
*11342 TAP_1050
*11343 TAP_1051
*11344 TAP_1052
*11345 TAP_1053
*11346 TAP_1054
*11347 TAP_1055
*11348 TAP_1056
*11349 TAP_1057
*11350 TAP_1058
*11351 TAP_1059
*11352 TAP_1060
*11353 TAP_1061
*11354 TAP_1062
*11355 TAP_1063
*11356 TAP_1064
*11357 TAP_1065
*11358 TAP_1066
*11359 TAP_1067
*11360 TAP_1068
*11361 TAP_1069
*11362 TAP_1070
*11363 TAP_1071
*11364 TAP_1072
*11365 TAP_1073
*11366 TAP_1074
*11367 TAP_1075
*11368 TAP_1076
*11369 TAP_1077
*11370 TAP_1078
*11371 TAP_1079
*11372 TAP_1080
*11373 TAP_1081
*11374 TAP_1082
*11375 TAP_1083
*11376 TAP_1084
*11377 TAP_1085
*11378 TAP_1086
*11379 TAP_1087
*11380 TAP_1088
*11381 TAP_1089
*11382 TAP_1090
*11383 TAP_1091
*11384 TAP_1092
*11385 TAP_1093
*11386 TAP_1094
*11387 TAP_1095
*11388 TAP_1096
*11389 TAP_1097
*11390 TAP_1098
*11391 TAP_1099
*11392 TAP_1100
*11393 TAP_1101
*11394 TAP_1102
*11395 TAP_1103
*11396 TAP_1104
*11397 TAP_1105
*11398 TAP_1106
*11399 TAP_1107
*11400 TAP_1108
*11401 TAP_1109
*11402 TAP_1110
*11403 TAP_1111
*11404 TAP_1112
*11405 TAP_1113
*11406 TAP_1114
*11407 TAP_1115
*11408 TAP_1116
*11409 TAP_1117
*11410 TAP_1118
*11411 TAP_1119
*11412 TAP_1120
*11413 TAP_1121
*11414 TAP_1122
*11415 TAP_1123
*11416 TAP_1124
*11417 TAP_1125
*11418 TAP_1126
*11419 TAP_1127
*11420 TAP_1128
*11421 TAP_1129
*11422 TAP_1130
*11423 TAP_1131
*11424 TAP_1132
*11425 TAP_1133
*11426 TAP_1134
*11427 TAP_1135
*11428 TAP_1136
*11429 TAP_1137
*11430 TAP_1138
*11431 TAP_1139
*11432 TAP_1140
*11433 TAP_1141
*11434 TAP_1142
*11435 TAP_1143
*11436 TAP_1144
*11437 TAP_1145
*11438 TAP_1146
*11439 TAP_1147
*11440 TAP_1148
*11441 TAP_1149
*11442 TAP_1150
*11443 TAP_1151
*11444 TAP_1152
*11445 TAP_1153
*11446 TAP_1154
*11447 TAP_1155
*11448 TAP_1156
*11449 TAP_1157
*11450 TAP_1158
*11451 TAP_1159
*11452 TAP_1160
*11453 TAP_1161
*11454 TAP_1162
*11455 TAP_1163
*11456 TAP_1164
*11457 TAP_1165
*11458 TAP_1166
*11459 TAP_1167
*11460 TAP_1168
*11461 TAP_1169
*11462 TAP_1170
*11463 TAP_1171
*11464 TAP_1172
*11465 TAP_1173
*11466 TAP_1174
*11467 TAP_1175
*11468 TAP_1176
*11469 TAP_1177
*11470 TAP_1178
*11471 TAP_1179
*11472 TAP_1180
*11473 TAP_1181
*11474 TAP_1182
*11475 TAP_1183
*11476 TAP_1184
*11477 TAP_1185
*11478 TAP_1186
*11479 TAP_1187
*11480 TAP_1188
*11481 TAP_1189
*11482 TAP_1190
*11483 TAP_1191
*11484 TAP_1192
*11485 TAP_1193
*11486 TAP_1194
*11487 TAP_1195
*11488 TAP_1196
*11489 TAP_1197
*11490 TAP_1198
*11491 TAP_1199
*11492 TAP_1200
*11493 TAP_1201
*11494 TAP_1202
*11495 TAP_1203
*11496 TAP_1204
*11497 TAP_1205
*11498 TAP_1206
*11499 TAP_1207
*11500 TAP_1208
*11501 TAP_1209
*11502 TAP_1210
*11503 TAP_1211
*11504 TAP_1212
*11505 TAP_1213
*11506 TAP_1214
*11507 TAP_1215
*11508 TAP_1216
*11509 TAP_1217
*11510 TAP_1218
*11511 TAP_1219
*11512 TAP_1220
*11513 TAP_1221
*11514 TAP_1222
*11515 TAP_1223
*11516 TAP_1224
*11517 TAP_1225
*11518 TAP_1226
*11519 TAP_1227
*11520 TAP_1228
*11521 TAP_1229
*11522 TAP_1230
*11523 TAP_1231
*11524 TAP_1232
*11525 TAP_1233
*11526 TAP_1234
*11527 TAP_1235
*11528 TAP_1236
*11529 TAP_1237
*11530 TAP_1238
*11531 TAP_1239
*11532 TAP_1240
*11533 TAP_1241
*11534 TAP_1242
*11535 TAP_1243
*11536 TAP_1244
*11537 TAP_1245
*11538 TAP_1246
*11539 TAP_1247
*11540 TAP_1248
*11541 TAP_1249
*11542 TAP_1250
*11543 TAP_1251
*11544 TAP_1252
*11545 TAP_1253
*11546 TAP_1254
*11547 TAP_1255
*11548 TAP_1256
*11549 TAP_1257
*11550 TAP_1258
*11551 TAP_1259
*11552 TAP_1260
*11553 TAP_1261
*11554 TAP_1262
*11555 TAP_1263
*11556 TAP_1264
*11557 TAP_1265
*11558 TAP_1266
*11559 TAP_1267
*11560 TAP_1268
*11561 TAP_1269
*11562 TAP_1270
*11563 TAP_1271
*11564 TAP_1272
*11565 TAP_1273
*11566 TAP_1274
*11567 TAP_1275
*11568 TAP_1276
*11569 TAP_1277
*11570 TAP_1278
*11571 TAP_1279
*11572 TAP_1280
*11573 TAP_1281
*11574 TAP_1282
*11575 TAP_1283
*11576 TAP_1284
*11577 TAP_1285
*11578 TAP_1286
*11579 TAP_1287
*11580 TAP_1288
*11581 TAP_1289
*11582 TAP_1290
*11583 TAP_1291
*11584 TAP_1292
*11585 TAP_1293
*11586 TAP_1294
*11587 TAP_1295
*11588 TAP_1296
*11589 TAP_1297
*11590 TAP_1298
*11591 TAP_1299
*11592 TAP_1300
*11593 TAP_1301
*11594 TAP_1302
*11595 TAP_1303
*11596 TAP_1304
*11597 TAP_1305
*11598 TAP_1306
*11599 TAP_1307
*11600 TAP_1308
*11601 TAP_1309
*11602 TAP_1310
*11603 TAP_1311
*11604 TAP_1312
*11605 TAP_1313
*11606 TAP_1314
*11607 TAP_1315
*11608 TAP_1316
*11609 TAP_1317
*11610 TAP_1318
*11611 TAP_1319
*11612 TAP_1320
*11613 TAP_1321
*11614 TAP_1322
*11615 TAP_1323
*11616 TAP_1324
*11617 TAP_1325
*11618 TAP_1326
*11619 TAP_1327
*11620 TAP_1328
*11621 TAP_1329
*11622 TAP_1330
*11623 TAP_1331
*11624 TAP_1332
*11625 TAP_1333
*11626 TAP_1334
*11627 TAP_1335
*11628 TAP_1336
*11629 TAP_1337
*11630 TAP_1338
*11631 TAP_1339
*11632 TAP_1340
*11633 TAP_1341
*11634 TAP_1342
*11635 TAP_1343
*11636 TAP_1344
*11637 TAP_1345
*11638 TAP_1346
*11639 TAP_1347
*11640 TAP_1348
*11641 TAP_1349
*11642 TAP_1350
*11643 TAP_1351
*11644 TAP_1352
*11645 TAP_1353
*11646 TAP_1354
*11647 TAP_1355
*11648 TAP_1356
*11649 TAP_1357
*11650 TAP_1358
*11651 TAP_1359
*11652 TAP_1360
*11653 TAP_1361
*11654 TAP_1362
*11655 TAP_1363
*11656 TAP_1364
*11657 TAP_1365
*11658 TAP_1366
*11659 TAP_1367
*11660 TAP_1368
*11661 TAP_1369
*11662 TAP_1370
*11663 TAP_1371
*11664 TAP_1372
*11665 TAP_1373
*11666 TAP_1374
*11667 TAP_1375
*11668 TAP_1376
*11669 TAP_1377
*11670 TAP_1378
*11671 TAP_1379
*11672 TAP_1380
*11673 TAP_1381
*11674 TAP_1382
*11675 TAP_1383
*11676 TAP_1384
*11677 TAP_1385
*11678 TAP_1386
*11679 TAP_1387
*11680 TAP_1388
*11681 TAP_1389
*11682 TAP_1390
*11683 TAP_1391
*11684 TAP_1392
*11685 TAP_1393
*11686 TAP_1394
*11687 TAP_1395
*11688 TAP_1396
*11689 TAP_1397
*11690 TAP_1398
*11691 TAP_1399
*11692 TAP_1400
*11693 TAP_1401
*11694 TAP_1402
*11695 TAP_1403
*11696 TAP_1404
*11697 TAP_1405
*11698 TAP_1406
*11699 TAP_1407
*11700 TAP_1408
*11701 TAP_1409
*11702 TAP_1410
*11703 TAP_1411
*11704 TAP_1412
*11705 TAP_1413
*11706 TAP_1414
*11707 TAP_1415
*11708 TAP_1416
*11709 TAP_1417
*11710 TAP_1418
*11711 TAP_1419
*11712 TAP_1420
*11713 TAP_1421
*11714 TAP_1422
*11715 TAP_1423
*11716 TAP_1424
*11717 TAP_1425
*11718 TAP_1426
*11719 TAP_1427
*11720 TAP_1428
*11721 TAP_1429
*11722 TAP_1430
*11723 TAP_1431
*11724 TAP_1432
*11725 TAP_1433
*11726 TAP_1434
*11727 TAP_1435
*11728 TAP_1436
*11729 TAP_1437
*11730 TAP_1438
*11731 TAP_1439
*11732 TAP_1440
*11733 TAP_1441
*11734 TAP_1442
*11735 TAP_1443
*11736 TAP_1444
*11737 TAP_1445
*11738 TAP_1446
*11739 TAP_1447
*11740 TAP_1448
*11741 TAP_1449
*11742 TAP_1450
*11743 TAP_1451
*11744 TAP_1452
*11745 TAP_1453
*11746 TAP_1454
*11747 TAP_1455
*11748 TAP_1456
*11749 TAP_1457
*11750 TAP_1458
*11751 TAP_1459
*11752 TAP_1460
*11753 TAP_1461
*11754 TAP_1462
*11755 TAP_1463
*11756 TAP_1464
*11757 TAP_1465
*11758 TAP_1466
*11759 TAP_1467
*11760 TAP_1468
*11761 TAP_1469
*11762 TAP_1470
*11763 TAP_1471
*11764 TAP_1472
*11765 TAP_1473
*11766 TAP_1474
*11767 TAP_1475
*11768 TAP_1476
*11769 TAP_1477
*11770 TAP_1478
*11771 TAP_1479
*11772 TAP_1480
*11773 TAP_1481
*11774 TAP_1482
*11775 TAP_1483
*11776 TAP_1484
*11777 TAP_1485
*11778 TAP_1486
*11779 TAP_1487
*11780 TAP_1488
*11781 TAP_1489
*11782 TAP_1490
*11783 TAP_1491
*11784 TAP_1492
*11785 TAP_1493
*11786 TAP_1494
*11787 TAP_1495
*11788 TAP_1496
*11789 TAP_1497
*11790 TAP_1498
*11791 TAP_1499
*11792 TAP_1500
*11793 TAP_1501
*11794 TAP_1502
*11795 TAP_1503
*11796 TAP_1504
*11797 TAP_1505
*11798 TAP_1506
*11799 TAP_1507
*11800 TAP_1508
*11801 TAP_1509
*11802 TAP_1510
*11803 TAP_1511
*11804 TAP_1512
*11805 TAP_1513
*11806 TAP_1514
*11807 TAP_1515
*11808 TAP_1516
*11809 TAP_1517
*11810 TAP_1518
*11811 TAP_1519
*11812 TAP_1520
*11813 TAP_1521
*11814 TAP_1522
*11815 TAP_1523
*11816 TAP_1524
*11817 TAP_1525
*11818 TAP_1526
*11819 TAP_1527
*11820 TAP_1528
*11821 TAP_1529
*11822 TAP_1530
*11823 TAP_1531
*11824 TAP_1532
*11825 TAP_1533
*11826 TAP_1534
*11827 TAP_1535
*11828 TAP_1536
*11829 TAP_1537
*11830 TAP_1538
*11831 TAP_1539
*11832 TAP_1540
*11833 TAP_1541
*11834 TAP_1542
*11835 TAP_1543
*11836 TAP_1544
*11837 TAP_1545
*11838 TAP_1546
*11839 TAP_1547
*11840 TAP_1548
*11841 TAP_1549
*11842 TAP_1550
*11843 TAP_1551
*11844 TAP_1552
*11845 TAP_1553
*11846 TAP_1554
*11847 TAP_1555
*11848 TAP_1556
*11849 TAP_1557
*11850 TAP_1558
*11851 TAP_1559
*11852 TAP_1560
*11853 TAP_1561
*11854 TAP_1562
*11855 TAP_1563
*11856 TAP_1564
*11857 TAP_1565
*11858 TAP_1566
*11859 TAP_1567
*11860 TAP_1568
*11861 TAP_1569
*11862 TAP_1570
*11863 TAP_1571
*11864 TAP_1572
*11865 TAP_1573
*11866 TAP_1574
*11867 TAP_1575
*11868 TAP_1576
*11869 TAP_1577
*11870 TAP_1578
*11871 TAP_1579
*11872 TAP_1580
*11873 TAP_1581
*11874 TAP_1582
*11875 TAP_1583
*11876 TAP_1584
*11877 TAP_1585
*11878 TAP_1586
*11879 TAP_1587
*11880 TAP_1588
*11881 TAP_1589
*11882 TAP_1590
*11883 TAP_1591
*11884 TAP_1592
*11885 TAP_1593
*11886 TAP_1594
*11887 TAP_1595
*11888 TAP_1596
*11889 TAP_1597
*11890 TAP_1598
*11891 TAP_1599
*11892 TAP_1600
*11893 TAP_1601
*11894 TAP_1602
*11895 TAP_1603
*11896 TAP_1604
*11897 TAP_1605
*11898 TAP_1606
*11899 TAP_1607
*11900 TAP_1608
*11901 TAP_1609
*11902 TAP_1610
*11903 TAP_1611
*11904 TAP_1612
*11905 TAP_1613
*11906 TAP_1614
*11907 TAP_1615
*11908 TAP_1616
*11909 TAP_1617
*11910 TAP_1618
*11911 TAP_1619
*11912 TAP_1620
*11913 TAP_1621
*11914 TAP_1622
*11915 TAP_1623
*11916 TAP_1624
*11917 TAP_1625
*11918 TAP_1626
*11919 TAP_1627
*11920 TAP_1628
*11921 TAP_1629
*11922 TAP_1630
*11923 TAP_1631
*11924 TAP_1632
*11925 TAP_1633
*11926 TAP_1634
*11927 TAP_1635
*11928 TAP_1636
*11929 TAP_1637
*11930 TAP_1638
*11931 TAP_1639
*11932 TAP_1640
*11933 TAP_1641
*11934 TAP_1642
*11935 TAP_1643
*11936 TAP_1644
*11937 TAP_1645
*11938 TAP_1646
*11939 TAP_1647
*11940 TAP_1648
*11941 TAP_1649
*11942 TAP_1650
*11943 TAP_1651
*11944 TAP_1652
*11945 TAP_1653
*11946 TAP_1654
*11947 TAP_1655
*11948 TAP_1656
*11949 TAP_1657
*11950 TAP_1658
*11951 TAP_1659
*11952 TAP_1660
*11953 TAP_1661
*11954 TAP_1662
*11955 TAP_1663
*11956 TAP_1664
*11957 TAP_1665
*11958 TAP_1666
*11959 TAP_1667
*11960 TAP_1668
*11961 TAP_1669
*11962 TAP_1670
*11963 TAP_1671
*11964 TAP_1672
*11965 TAP_1673
*11966 TAP_1674
*11967 TAP_1675
*11968 TAP_1676
*11969 TAP_1677
*11970 TAP_1678
*11971 TAP_1679
*11972 TAP_1680
*11973 TAP_1681
*11974 TAP_1682
*11975 TAP_1683
*11976 TAP_1684
*11977 TAP_1685
*11978 TAP_1686
*11979 TAP_1687
*11980 TAP_1688
*11981 TAP_1689
*11982 TAP_1690
*11983 TAP_1691
*11984 TAP_1692
*11985 TAP_1693
*11986 TAP_1694
*11987 TAP_1695
*11988 TAP_1696
*11989 TAP_1697
*11990 TAP_1698
*11991 TAP_1699
*11992 TAP_1700
*11993 TAP_1701
*11994 TAP_1702
*11995 TAP_1703
*11996 TAP_1704
*11997 TAP_1705
*11998 TAP_1706
*11999 TAP_1707
*12000 TAP_1708
*12001 TAP_1709
*12002 TAP_1710
*12003 TAP_1711
*12004 TAP_1712
*12005 TAP_1713
*12006 TAP_1714
*12007 TAP_1715
*12008 TAP_1716
*12009 TAP_1717
*12010 TAP_1718
*12011 TAP_1719
*12012 TAP_1720
*12013 TAP_1721
*12014 TAP_1722
*12015 TAP_1723
*12016 TAP_1724
*12017 TAP_1725
*12018 TAP_1726
*12019 TAP_1727
*12020 TAP_1728
*12021 TAP_1729
*12022 TAP_1730
*12023 TAP_1731
*12024 TAP_1732
*12025 TAP_1733
*12026 TAP_1734
*12027 TAP_1735
*12028 TAP_1736
*12029 TAP_1737
*12030 TAP_1738
*12031 TAP_1739
*12032 TAP_1740
*12033 TAP_1741
*12034 TAP_1742
*12035 TAP_1743
*12036 TAP_1744
*12037 TAP_1745
*12038 TAP_1746
*12039 TAP_1747
*12040 TAP_1748
*12041 TAP_1749
*12042 TAP_1750
*12043 TAP_1751
*12044 TAP_1752
*12045 TAP_1753
*12046 TAP_1754
*12047 TAP_1755
*12048 TAP_1756
*12049 TAP_1757
*12050 TAP_1758
*12051 TAP_1759
*12052 TAP_1760
*12053 TAP_1761
*12054 TAP_1762
*12055 TAP_1763
*12056 TAP_1764
*12057 TAP_1765
*12058 TAP_1766
*12059 TAP_1767
*12060 TAP_1768
*12061 TAP_1769
*12062 TAP_1770
*12063 TAP_1771
*12064 TAP_1772
*12065 TAP_1773
*12066 TAP_1774
*12067 TAP_1775
*12068 TAP_1776
*12069 TAP_1777
*12070 TAP_1778
*12071 TAP_1779
*12072 TAP_1780
*12073 TAP_1781
*12074 TAP_1782
*12075 TAP_1783
*12076 TAP_1784
*12077 TAP_1785
*12078 TAP_1786
*12079 TAP_1787
*12080 TAP_1788
*12081 TAP_1789
*12082 TAP_1790
*12083 TAP_1791
*12084 TAP_1792
*12085 TAP_1793
*12086 TAP_1794
*12087 TAP_1795
*12088 TAP_1796
*12089 TAP_1797
*12090 TAP_1798
*12091 TAP_1799
*12092 TAP_1800
*12093 TAP_1801
*12094 TAP_1802
*12095 TAP_1803
*12096 TAP_1804
*12097 TAP_1805
*12098 TAP_1806
*12099 TAP_1807
*12100 TAP_1808
*12101 TAP_1809
*12102 TAP_1810
*12103 TAP_1811
*12104 TAP_1812
*12105 TAP_1813
*12106 TAP_1814
*12107 TAP_1815
*12108 TAP_1816
*12109 TAP_1817
*12110 TAP_1818
*12111 TAP_1819
*12112 TAP_1820
*12113 TAP_1821
*12114 TAP_1822
*12115 TAP_1823
*12116 TAP_1824
*12117 TAP_1825
*12118 TAP_1826
*12119 TAP_1827
*12120 TAP_1828
*12121 TAP_1829
*12122 TAP_1830
*12123 TAP_1831
*12124 TAP_1832
*12125 TAP_1833
*12126 TAP_1834
*12127 TAP_1835
*12128 TAP_1836
*12129 TAP_1837
*12130 TAP_1838
*12131 TAP_1839
*12132 TAP_1840
*12133 TAP_1841
*12134 TAP_1842
*12135 TAP_1843
*12136 TAP_1844
*12137 TAP_1845
*12138 TAP_1846
*12139 TAP_1847
*12140 TAP_1848
*12141 TAP_1849
*12142 TAP_1850
*12143 TAP_1851
*12144 TAP_1852
*12145 TAP_1853
*12146 TAP_1854
*12147 TAP_1855
*12148 TAP_1856
*12149 TAP_1857
*12150 TAP_1858
*12151 TAP_1859
*12152 TAP_1860
*12153 TAP_1861
*12154 TAP_1862
*12155 TAP_1863
*12156 TAP_1864
*12157 TAP_1865
*12158 TAP_1866
*12159 TAP_1867
*12160 TAP_1868
*12161 TAP_1869
*12162 TAP_1870
*12163 TAP_1871
*12164 TAP_1872
*12165 TAP_1873
*12166 TAP_1874
*12167 TAP_1875
*12168 TAP_1876
*12169 TAP_1877
*12170 TAP_1878
*12171 TAP_1879
*12172 TAP_1880
*12173 TAP_1881
*12174 TAP_1882
*12175 TAP_1883
*12176 TAP_1884
*12177 TAP_1885
*12178 TAP_1886
*12179 TAP_1887
*12180 TAP_1888
*12181 TAP_1889
*12182 TAP_1890
*12183 TAP_1891
*12184 TAP_1892
*12185 TAP_1893
*12186 TAP_1894
*12187 TAP_1895
*12188 TAP_1896
*12189 TAP_1897
*12190 TAP_1898
*12191 TAP_1899
*12192 TAP_1900
*12193 TAP_1901
*12194 TAP_1902
*12195 TAP_1903
*12196 TAP_1904
*12197 TAP_1905
*12198 TAP_1906
*12199 TAP_1907
*12200 TAP_1908
*12201 TAP_1909
*12202 TAP_1910
*12203 TAP_1911
*12204 TAP_1912
*12205 TAP_1913
*12206 TAP_1914
*12207 TAP_1915
*12208 TAP_1916
*12209 TAP_1917
*12210 TAP_1918
*12211 TAP_1919
*12212 TAP_1920
*12213 TAP_1921
*12214 TAP_1922
*12215 TAP_1923
*12216 TAP_1924
*12217 TAP_1925
*12218 TAP_1926
*12219 TAP_1927
*12220 TAP_1928
*12221 TAP_1929
*12222 TAP_1930
*12223 TAP_1931
*12224 TAP_1932
*12225 TAP_1933
*12226 TAP_1934
*12227 TAP_1935
*12228 TAP_1936
*12229 TAP_1937
*12230 TAP_1938
*12231 TAP_1939
*12232 TAP_1940
*12233 TAP_1941
*12234 TAP_1942
*12235 TAP_1943
*12236 TAP_1944
*12237 TAP_1945
*12238 TAP_1946
*12239 TAP_1947
*12240 TAP_1948
*12241 TAP_1949
*12242 TAP_1950
*12243 TAP_1951
*12244 TAP_1952
*12245 TAP_1953
*12246 TAP_1954
*12247 TAP_1955
*12248 TAP_1956
*12249 TAP_1957
*12250 TAP_1958
*12251 TAP_1959
*12252 TAP_1960
*12253 TAP_1961
*12254 TAP_1962
*12255 TAP_1963
*12256 TAP_1964
*12257 TAP_1965
*12258 TAP_1966
*12259 TAP_1967
*12260 TAP_1968
*12261 TAP_1969
*12262 TAP_1970
*12263 TAP_1971
*12264 TAP_1972
*12265 TAP_1973
*12266 TAP_1974
*12267 TAP_1975
*12268 TAP_1976
*12269 TAP_1977
*12270 TAP_1978
*12271 TAP_1979
*12272 TAP_1980
*12273 TAP_1981
*12274 TAP_1982
*12275 TAP_1983
*12276 TAP_1984
*12277 TAP_1985
*12278 TAP_1986
*12279 TAP_1987
*12280 TAP_1988
*12281 TAP_1989
*12282 TAP_1990
*12283 TAP_1991
*12284 TAP_1992
*12285 TAP_1993
*12286 TAP_1994
*12287 TAP_1995
*12288 TAP_1996
*12289 TAP_1997
*12290 TAP_1998
*12291 TAP_1999
*12292 TAP_2000
*12293 TAP_2001
*12294 TAP_2002
*12295 TAP_2003
*12296 TAP_2004
*12297 TAP_2005
*12298 TAP_2006
*12299 TAP_2007
*12300 TAP_2008
*12301 TAP_2009
*12302 TAP_2010
*12303 TAP_2011
*12304 TAP_2012
*12305 TAP_2013
*12306 TAP_2014
*12307 TAP_2015
*12308 TAP_2016
*12309 TAP_2017
*12310 TAP_2018
*12311 TAP_2019
*12312 TAP_2020
*12313 TAP_2021
*12314 TAP_2022
*12315 TAP_2023
*12316 TAP_2024
*12317 TAP_2025
*12318 TAP_2026
*12319 TAP_2027
*12320 TAP_2028
*12321 TAP_2029
*12322 TAP_2030
*12323 TAP_2031
*12324 TAP_2032
*12325 TAP_2033
*12326 TAP_2034
*12327 TAP_2035
*12328 TAP_2036
*12329 TAP_2037
*12330 TAP_2038
*12331 TAP_2039
*12332 TAP_2040
*12333 TAP_2041
*12334 TAP_2042
*12335 TAP_2043
*12336 TAP_2044
*12337 TAP_2045
*12338 TAP_2046
*12339 TAP_2047
*12340 TAP_2048
*12341 TAP_2049
*12342 TAP_2050
*12343 TAP_2051
*12344 TAP_2052
*12345 TAP_2053
*12346 TAP_2054
*12347 TAP_2055
*12348 TAP_2056
*12349 TAP_262
*12350 TAP_263
*12351 TAP_264
*12352 TAP_265
*12353 TAP_266
*12354 TAP_267
*12355 TAP_268
*12356 TAP_269
*12357 TAP_270
*12358 TAP_271
*12359 TAP_272
*12360 TAP_273
*12361 TAP_274
*12362 TAP_275
*12363 TAP_276
*12364 TAP_277
*12365 TAP_278
*12366 TAP_279
*12367 TAP_280
*12368 TAP_281
*12369 TAP_282
*12370 TAP_283
*12371 TAP_284
*12372 TAP_285
*12373 TAP_286
*12374 TAP_287
*12375 TAP_288
*12376 TAP_289
*12377 TAP_290
*12378 TAP_291
*12379 TAP_292
*12380 TAP_293
*12381 TAP_294
*12382 TAP_295
*12383 TAP_296
*12384 TAP_297
*12385 TAP_298
*12386 TAP_299
*12387 TAP_300
*12388 TAP_301
*12389 TAP_302
*12390 TAP_303
*12391 TAP_304
*12392 TAP_305
*12393 TAP_306
*12394 TAP_307
*12395 TAP_308
*12396 TAP_309
*12397 TAP_310
*12398 TAP_311
*12399 TAP_312
*12400 TAP_313
*12401 TAP_314
*12402 TAP_315
*12403 TAP_316
*12404 TAP_317
*12405 TAP_318
*12406 TAP_319
*12407 TAP_320
*12408 TAP_321
*12409 TAP_322
*12410 TAP_323
*12411 TAP_324
*12412 TAP_325
*12413 TAP_326
*12414 TAP_327
*12415 TAP_328
*12416 TAP_329
*12417 TAP_330
*12418 TAP_331
*12419 TAP_332
*12420 TAP_333
*12421 TAP_334
*12422 TAP_335
*12423 TAP_336
*12424 TAP_337
*12425 TAP_338
*12426 TAP_339
*12427 TAP_340
*12428 TAP_341
*12429 TAP_342
*12430 TAP_343
*12431 TAP_344
*12432 TAP_345
*12433 TAP_346
*12434 TAP_347
*12435 TAP_348
*12436 TAP_349
*12437 TAP_350
*12438 TAP_351
*12439 TAP_352
*12440 TAP_353
*12441 TAP_354
*12442 TAP_355
*12443 TAP_356
*12444 TAP_357
*12445 TAP_358
*12446 TAP_359
*12447 TAP_360
*12448 TAP_361
*12449 TAP_362
*12450 TAP_363
*12451 TAP_364
*12452 TAP_365
*12453 TAP_366
*12454 TAP_367
*12455 TAP_368
*12456 TAP_369
*12457 TAP_370
*12458 TAP_371
*12459 TAP_372
*12460 TAP_373
*12461 TAP_374
*12462 TAP_375
*12463 TAP_376
*12464 TAP_377
*12465 TAP_378
*12466 TAP_379
*12467 TAP_380
*12468 TAP_381
*12469 TAP_382
*12470 TAP_383
*12471 TAP_384
*12472 TAP_385
*12473 TAP_386
*12474 TAP_387
*12475 TAP_388
*12476 TAP_389
*12477 TAP_390
*12478 TAP_391
*12479 TAP_392
*12480 TAP_393
*12481 TAP_394
*12482 TAP_395
*12483 TAP_396
*12484 TAP_397
*12485 TAP_398
*12486 TAP_399
*12487 TAP_400
*12488 TAP_401
*12489 TAP_402
*12490 TAP_403
*12491 TAP_404
*12492 TAP_405
*12493 TAP_406
*12494 TAP_407
*12495 TAP_408
*12496 TAP_409
*12497 TAP_410
*12498 TAP_411
*12499 TAP_412
*12500 TAP_413
*12501 TAP_414
*12502 TAP_415
*12503 TAP_416
*12504 TAP_417
*12505 TAP_418
*12506 TAP_419
*12507 TAP_420
*12508 TAP_421
*12509 TAP_422
*12510 TAP_423
*12511 TAP_424
*12512 TAP_425
*12513 TAP_426
*12514 TAP_427
*12515 TAP_428
*12516 TAP_429
*12517 TAP_430
*12518 TAP_431
*12519 TAP_432
*12520 TAP_433
*12521 TAP_434
*12522 TAP_435
*12523 TAP_436
*12524 TAP_437
*12525 TAP_438
*12526 TAP_439
*12527 TAP_440
*12528 TAP_441
*12529 TAP_442
*12530 TAP_443
*12531 TAP_444
*12532 TAP_445
*12533 TAP_446
*12534 TAP_447
*12535 TAP_448
*12536 TAP_449
*12537 TAP_450
*12538 TAP_451
*12539 TAP_452
*12540 TAP_453
*12541 TAP_454
*12542 TAP_455
*12543 TAP_456
*12544 TAP_457
*12545 TAP_458
*12546 TAP_459
*12547 TAP_460
*12548 TAP_461
*12549 TAP_462
*12550 TAP_463
*12551 TAP_464
*12552 TAP_465
*12553 TAP_466
*12554 TAP_467
*12555 TAP_468
*12556 TAP_469
*12557 TAP_470
*12558 TAP_471
*12559 TAP_472
*12560 TAP_473
*12561 TAP_474
*12562 TAP_475
*12563 TAP_476
*12564 TAP_477
*12565 TAP_478
*12566 TAP_479
*12567 TAP_480
*12568 TAP_481
*12569 TAP_482
*12570 TAP_483
*12571 TAP_484
*12572 TAP_485
*12573 TAP_486
*12574 TAP_487
*12575 TAP_488
*12576 TAP_489
*12577 TAP_490
*12578 TAP_491
*12579 TAP_492
*12580 TAP_493
*12581 TAP_494
*12582 TAP_495
*12583 TAP_496
*12584 TAP_497
*12585 TAP_498
*12586 TAP_499
*12587 TAP_500
*12588 TAP_501
*12589 TAP_502
*12590 TAP_503
*12591 TAP_504
*12592 TAP_505
*12593 TAP_506
*12594 TAP_507
*12595 TAP_508
*12596 TAP_509
*12597 TAP_510
*12598 TAP_511
*12599 TAP_512
*12600 TAP_513
*12601 TAP_514
*12602 TAP_515
*12603 TAP_516
*12604 TAP_517
*12605 TAP_518
*12606 TAP_519
*12607 TAP_520
*12608 TAP_521
*12609 TAP_522
*12610 TAP_523
*12611 TAP_524
*12612 TAP_525
*12613 TAP_526
*12614 TAP_527
*12615 TAP_528
*12616 TAP_529
*12617 TAP_530
*12618 TAP_531
*12619 TAP_532
*12620 TAP_533
*12621 TAP_534
*12622 TAP_535
*12623 TAP_536
*12624 TAP_537
*12625 TAP_538
*12626 TAP_539
*12627 TAP_540
*12628 TAP_541
*12629 TAP_542
*12630 TAP_543
*12631 TAP_544
*12632 TAP_545
*12633 TAP_546
*12634 TAP_547
*12635 TAP_548
*12636 TAP_549
*12637 TAP_550
*12638 TAP_551
*12639 TAP_552
*12640 TAP_553
*12641 TAP_554
*12642 TAP_555
*12643 TAP_556
*12644 TAP_557
*12645 TAP_558
*12646 TAP_559
*12647 TAP_560
*12648 TAP_561
*12649 TAP_562
*12650 TAP_563
*12651 TAP_564
*12652 TAP_565
*12653 TAP_566
*12654 TAP_567
*12655 TAP_568
*12656 TAP_569
*12657 TAP_570
*12658 TAP_571
*12659 TAP_572
*12660 TAP_573
*12661 TAP_574
*12662 TAP_575
*12663 TAP_576
*12664 TAP_577
*12665 TAP_578
*12666 TAP_579
*12667 TAP_580
*12668 TAP_581
*12669 TAP_582
*12670 TAP_583
*12671 TAP_584
*12672 TAP_585
*12673 TAP_586
*12674 TAP_587
*12675 TAP_588
*12676 TAP_589
*12677 TAP_590
*12678 TAP_591
*12679 TAP_592
*12680 TAP_593
*12681 TAP_594
*12682 TAP_595
*12683 TAP_596
*12684 TAP_597
*12685 TAP_598
*12686 TAP_599
*12687 TAP_600
*12688 TAP_601
*12689 TAP_602
*12690 TAP_603
*12691 TAP_604
*12692 TAP_605
*12693 TAP_606
*12694 TAP_607
*12695 TAP_608
*12696 TAP_609
*12697 TAP_610
*12698 TAP_611
*12699 TAP_612
*12700 TAP_613
*12701 TAP_614
*12702 TAP_615
*12703 TAP_616
*12704 TAP_617
*12705 TAP_618
*12706 TAP_619
*12707 TAP_620
*12708 TAP_621
*12709 TAP_622
*12710 TAP_623
*12711 TAP_624
*12712 TAP_625
*12713 TAP_626
*12714 TAP_627
*12715 TAP_628
*12716 TAP_629
*12717 TAP_630
*12718 TAP_631
*12719 TAP_632
*12720 TAP_633
*12721 TAP_634
*12722 TAP_635
*12723 TAP_636
*12724 TAP_637
*12725 TAP_638
*12726 TAP_639
*12727 TAP_640
*12728 TAP_641
*12729 TAP_642
*12730 TAP_643
*12731 TAP_644
*12732 TAP_645
*12733 TAP_646
*12734 TAP_647
*12735 TAP_648
*12736 TAP_649
*12737 TAP_650
*12738 TAP_651
*12739 TAP_652
*12740 TAP_653
*12741 TAP_654
*12742 TAP_655
*12743 TAP_656
*12744 TAP_657
*12745 TAP_658
*12746 TAP_659
*12747 TAP_660
*12748 TAP_661
*12749 TAP_662
*12750 TAP_663
*12751 TAP_664
*12752 TAP_665
*12753 TAP_666
*12754 TAP_667
*12755 TAP_668
*12756 TAP_669
*12757 TAP_670
*12758 TAP_671
*12759 TAP_672
*12760 TAP_673
*12761 TAP_674
*12762 TAP_675
*12763 TAP_676
*12764 TAP_677
*12765 TAP_678
*12766 TAP_679
*12767 TAP_680
*12768 TAP_681
*12769 TAP_682
*12770 TAP_683
*12771 TAP_684
*12772 TAP_685
*12773 TAP_686
*12774 TAP_687
*12775 TAP_688
*12776 TAP_689
*12777 TAP_690
*12778 TAP_691
*12779 TAP_692
*12780 TAP_693
*12781 TAP_694
*12782 TAP_695
*12783 TAP_696
*12784 TAP_697
*12785 TAP_698
*12786 TAP_699
*12787 TAP_700
*12788 TAP_701
*12789 TAP_702
*12790 TAP_703
*12791 TAP_704
*12792 TAP_705
*12793 TAP_706
*12794 TAP_707
*12795 TAP_708
*12796 TAP_709
*12797 TAP_710
*12798 TAP_711
*12799 TAP_712
*12800 TAP_713
*12801 TAP_714
*12802 TAP_715
*12803 TAP_716
*12804 TAP_717
*12805 TAP_718
*12806 TAP_719
*12807 TAP_720
*12808 TAP_721
*12809 TAP_722
*12810 TAP_723
*12811 TAP_724
*12812 TAP_725
*12813 TAP_726
*12814 TAP_727
*12815 TAP_728
*12816 TAP_729
*12817 TAP_730
*12818 TAP_731
*12819 TAP_732
*12820 TAP_733
*12821 TAP_734
*12822 TAP_735
*12823 TAP_736
*12824 TAP_737
*12825 TAP_738
*12826 TAP_739
*12827 TAP_740
*12828 TAP_741
*12829 TAP_742
*12830 TAP_743
*12831 TAP_744
*12832 TAP_745
*12833 TAP_746
*12834 TAP_747
*12835 TAP_748
*12836 TAP_749
*12837 TAP_750
*12838 TAP_751
*12839 TAP_752
*12840 TAP_753
*12841 TAP_754
*12842 TAP_755
*12843 TAP_756
*12844 TAP_757
*12845 TAP_758
*12846 TAP_759
*12847 TAP_760
*12848 TAP_761
*12849 TAP_762
*12850 TAP_763
*12851 TAP_764
*12852 TAP_765
*12853 TAP_766
*12854 TAP_767
*12855 TAP_768
*12856 TAP_769
*12857 TAP_770
*12858 TAP_771
*12859 TAP_772
*12860 TAP_773
*12861 TAP_774
*12862 TAP_775
*12863 TAP_776
*12864 TAP_777
*12865 TAP_778
*12866 TAP_779
*12867 TAP_780
*12868 TAP_781
*12869 TAP_782
*12870 TAP_783
*12871 TAP_784
*12872 TAP_785
*12873 TAP_786
*12874 TAP_787
*12875 TAP_788
*12876 TAP_789
*12877 TAP_790
*12878 TAP_791
*12879 TAP_792
*12880 TAP_793
*12881 TAP_794
*12882 TAP_795
*12883 TAP_796
*12884 TAP_797
*12885 TAP_798
*12886 TAP_799
*12887 TAP_800
*12888 TAP_801
*12889 TAP_802
*12890 TAP_803
*12891 TAP_804
*12892 TAP_805
*12893 TAP_806
*12894 TAP_807
*12895 TAP_808
*12896 TAP_809
*12897 TAP_810
*12898 TAP_811
*12899 TAP_812
*12900 TAP_813
*12901 TAP_814
*12902 TAP_815
*12903 TAP_816
*12904 TAP_817
*12905 TAP_818
*12906 TAP_819
*12907 TAP_820
*12908 TAP_821
*12909 TAP_822
*12910 TAP_823
*12911 TAP_824
*12912 TAP_825
*12913 TAP_826
*12914 TAP_827
*12915 TAP_828
*12916 TAP_829
*12917 TAP_830
*12918 TAP_831
*12919 TAP_832
*12920 TAP_833
*12921 TAP_834
*12922 TAP_835
*12923 TAP_836
*12924 TAP_837
*12925 TAP_838
*12926 TAP_839
*12927 TAP_840
*12928 TAP_841
*12929 TAP_842
*12930 TAP_843
*12931 TAP_844
*12932 TAP_845
*12933 TAP_846
*12934 TAP_847
*12935 TAP_848
*12936 TAP_849
*12937 TAP_850
*12938 TAP_851
*12939 TAP_852
*12940 TAP_853
*12941 TAP_854
*12942 TAP_855
*12943 TAP_856
*12944 TAP_857
*12945 TAP_858
*12946 TAP_859
*12947 TAP_860
*12948 TAP_861
*12949 TAP_862
*12950 TAP_863
*12951 TAP_864
*12952 TAP_865
*12953 TAP_866
*12954 TAP_867
*12955 TAP_868
*12956 TAP_869
*12957 TAP_870
*12958 TAP_871
*12959 TAP_872
*12960 TAP_873
*12961 TAP_874
*12962 TAP_875
*12963 TAP_876
*12964 TAP_877
*12965 TAP_878
*12966 TAP_879
*12967 TAP_880
*12968 TAP_881
*12969 TAP_882
*12970 TAP_883
*12971 TAP_884
*12972 TAP_885
*12973 TAP_886
*12974 TAP_887
*12975 TAP_888
*12976 TAP_889
*12977 TAP_890
*12978 TAP_891
*12979 TAP_892
*12980 TAP_893
*12981 TAP_894
*12982 TAP_895
*12983 TAP_896
*12984 TAP_897
*12985 TAP_898
*12986 TAP_899
*12987 TAP_900
*12988 TAP_901
*12989 TAP_902
*12990 TAP_903
*12991 TAP_904
*12992 TAP_905
*12993 TAP_906
*12994 TAP_907
*12995 TAP_908
*12996 TAP_909
*12997 TAP_910
*12998 TAP_911
*12999 TAP_912
*13000 TAP_913
*13001 TAP_914
*13002 TAP_915
*13003 TAP_916
*13004 TAP_917
*13005 TAP_918
*13006 TAP_919
*13007 TAP_920
*13008 TAP_921
*13009 TAP_922
*13010 TAP_923
*13011 TAP_924
*13012 TAP_925
*13013 TAP_926
*13014 TAP_927
*13015 TAP_928
*13016 TAP_929
*13017 TAP_930
*13018 TAP_931
*13019 TAP_932
*13020 TAP_933
*13021 TAP_934
*13022 TAP_935
*13023 TAP_936
*13024 TAP_937
*13025 TAP_938
*13026 TAP_939
*13027 TAP_940
*13028 TAP_941
*13029 TAP_942
*13030 TAP_943
*13031 TAP_944
*13032 TAP_945
*13033 TAP_946
*13034 TAP_947
*13035 TAP_948
*13036 TAP_949
*13037 TAP_950
*13038 TAP_951
*13039 TAP_952
*13040 TAP_953
*13041 TAP_954
*13042 TAP_955
*13043 TAP_956
*13044 TAP_957
*13045 TAP_958
*13046 TAP_959
*13047 TAP_960
*13048 TAP_961
*13049 TAP_962
*13050 TAP_963
*13051 TAP_964
*13052 TAP_965
*13053 TAP_966
*13054 TAP_967
*13055 TAP_968
*13056 TAP_969
*13057 TAP_970
*13058 TAP_971
*13059 TAP_972
*13060 TAP_973
*13061 TAP_974
*13062 TAP_975
*13063 TAP_976
*13064 TAP_977
*13065 TAP_978
*13066 TAP_979
*13067 TAP_980
*13068 TAP_981
*13069 TAP_982
*13070 TAP_983
*13071 TAP_984
*13072 TAP_985
*13073 TAP_986
*13074 TAP_987
*13075 TAP_988
*13076 TAP_989
*13077 TAP_990
*13078 TAP_991
*13079 TAP_992
*13080 TAP_993
*13081 TAP_994
*13082 TAP_995
*13083 TAP_996
*13084 TAP_997
*13085 TAP_998
*13086 TAP_999
*13087 _071_
*13088 _072_
*13089 _073_
*13090 _074_
*13091 _075_
*13092 _076_
*13093 _077_
*13094 _078_
*13095 _079_
*13096 _080_
*13097 _081_
*13098 _082_
*13099 _083_
*13100 _084_
*13101 _085_
*13102 _086_
*13103 _087_
*13104 _088_
*13105 _089_
*13106 _090_
*13107 _091_
*13108 _092_
*13109 _093_
*13110 _094_
*13111 _095_
*13112 _096_
*13113 _097_
*13114 _098_
*13115 _099_
*13116 _100_
*13117 _101_
*13118 _102_
*13119 _103_
*13120 _104_
*13121 _105_
*13122 _106_
*13123 _107_
*13124 _108_
*13125 _109_
*13126 _110_
*13127 _111_
*13128 _112_
*13129 _113_
*13130 _114_
*13131 _115_
*13132 _116_
*13133 _117_
*13134 _118_
*13135 _119_
*13136 _120_
*13137 _121_
*13138 _122_
*13139 _123_
*13140 _124_
*13141 _125_
*13142 _126_
*13143 _127_
*13144 _128_
*13145 _129_
*13146 _130_
*13147 _131_
*13148 _132_
*13149 _133_
*13150 _134_
*13151 _135_
*13152 _136_
*13153 _137_
*13154 _138_
*13155 _139_
*13156 _140_
*13157 _141_
*13158 _142_
*13159 _143_
*13160 _144_
*13161 _145_
*13162 _146_
*13163 _147_
*13164 _148_
*13165 _149_
*13166 _150_
*13167 clkbuf_0_clk
*13168 clkbuf_1_0__f_clk
*13169 clkbuf_1_1__f_clk
*13170 input1
*13171 input2
*13172 input3
*13173 input4
*13174 input5
*13175 input6
*13176 input7
*13177 input8
*13178 input9
*13179 max_cap17
*13180 output10
*13181 output11
*13182 output12
*13183 output13
*13184 output14
*13185 output15
*13186 wire16

*PORTS
A[0] I
A[1] I
A[2] I
A[3] I
B[0] I
B[1] I
B[2] I
B[3] I
Carry O
Y[0] O
Y[1] O
Y[2] O
Y[3] O
Zero O
clk I
rst I

*D_NET *1 0.00201126
*CONN
*P A[0] I
*I *13170:A I *D sky130_fd_sc_hd__clkbuf_4
*CAP
1 A[0] 0.00100563
2 *13170:A 0
3 *1:13 0.00100563
*RES
1 A[0] *1:13 35.6115 
2 *1:13 *13170:A 23 
*END

*D_NET *2 0.0030208
*CONN
*P A[1] I
*I *13171:A I *D sky130_fd_sc_hd__buf_4
*CAP
1 A[1] 0.0015104
2 *13171:A 0
3 *2:9 0.0015104
*RES
1 A[1] *2:9 47.8529 
2 *2:9 *13171:A 23 
*END

*D_NET *3 0.00213362
*CONN
*P A[2] I
*I *13172:A I *D sky130_fd_sc_hd__buf_4
*CAP
1 A[2] 0.00106681
2 *13172:A 0
3 *3:13 0.00106681
4 *3:13 *100:51 0
5 *3:13 *106:8 0
*RES
1 A[2] *3:13 29.5135 
2 *3:13 *13172:A 23 
*END

*D_NET *4 0.00294507
*CONN
*P A[3] I
*I *13173:A I *D sky130_fd_sc_hd__buf_4
*CAP
1 A[3] 0.00147253
2 *13173:A 0
3 *4:9 0.00147253
*RES
1 A[3] *4:9 47.0243 
2 *4:9 *13173:A 23 
*END

*D_NET *5 0.00191101
*CONN
*P B[0] I
*I *13174:A I *D sky130_fd_sc_hd__buf_2
*CAP
1 B[0] 0.000955506
2 *13174:A 0
3 *5:9 0.000955506
*RES
1 B[0] *5:9 35.9421 
2 *5:9 *13174:A 23 
*END

*D_NET *6 0.00401322
*CONN
*P B[1] I
*I *13175:A I *D sky130_fd_sc_hd__clkbuf_4
*CAP
1 B[1] 0.00158733
2 *13175:A 0
3 *6:15 0.000419278
4 *6:9 0.00200661
*RES
1 B[1] *6:9 48.8264 
2 *6:9 *6:15 38.9486 
3 *6:15 *13175:A 23 
*END

*D_NET *7 0.00185733
*CONN
*P B[2] I
*I *13176:A I *D sky130_fd_sc_hd__clkbuf_4
*CAP
1 B[2] 0.000928666
2 *13176:A 0
3 *7:11 0.000928666
*RES
1 B[2] *7:11 35.8593 
2 *7:11 *13176:A 23 
*END

*D_NET *8 0.0020293
*CONN
*P B[3] I
*I *13177:A I *D sky130_fd_sc_hd__clkbuf_2
*CAP
1 B[3] 0.00101465
2 *13177:A 0
3 *8:9 0.00101465
*RES
1 B[3] *8:9 36.6671 
2 *8:9 *13177:A 23 
*END

*D_NET *9 0.00214125
*CONN
*P Carry O
*I *13180:X O *D sky130_fd_sc_hd__clkbuf_4
*CAP
1 Carry 0.000871176
2 *13180:X 0.000199449
3 *9:8 0.00107063
*RES
1 *13180:X *9:8 40.5271 
2 *9:8 Carry 19.2643 
*END

*D_NET *12 0.0021861
*CONN
*P Y[0] O
*I *13181:X O *D sky130_fd_sc_hd__clkbuf_4
*CAP
1 Y[0] 0.000905491
2 *13181:X 0.000187559
3 *12:14 0.00109305
*RES
1 *13181:X *12:14 49.0968 
2 *12:14 Y[0] 3.48693 
*END

*D_NET *13 0.00208301
*CONN
*P Y[1] O
*I *13182:X O *D sky130_fd_sc_hd__clkbuf_4
*CAP
1 Y[1] 0.000533105
2 *13182:X 0.000508401
3 *13:10 0.00104151
*RES
1 *13182:X *13:10 47.0418 
2 *13:10 Y[1] 10.0459 
*END

*D_NET *14 0.00397214
*CONN
*P Y[2] O
*I *13183:X O *D sky130_fd_sc_hd__clkbuf_4
*CAP
1 Y[2] 0.000850957
2 *13183:X 0.00113511
3 *14:6 0.00198607
*RES
1 *13183:X *14:6 45.5371 
2 *14:6 Y[2] 34.2643 
*END

*D_NET *15 0.00189739
*CONN
*P Y[3] O
*I *13184:X O *D sky130_fd_sc_hd__clkbuf_4
*CAP
1 Y[3] 0.000948693
2 *13184:X 0
3 *15:6 0.000948693
*RES
1 *13184:X *15:6 38 
2 *15:6 Y[3] 22.6821 
*END

*D_NET *16 0.00208746
*CONN
*P Zero O
*I *13185:X O *D sky130_fd_sc_hd__clkbuf_4
*CAP
1 Zero 0.000856171
2 *13185:X 0.000187559
3 *16:14 0.00104373
*RES
1 *13185:X *16:14 49.0968 
2 *16:14 Zero 3.248 
*END

*D_NET *17 0.0232383
*CONN
*P clk I
*I *13167:A I *D sky130_fd_sc_hd__clkbuf_16
*CAP
1 clk 0.00947671
2 *13167:A 0
3 *17:15 0.00195717
4 *17:5 0.0114339
5 *17:5 *96:79 6.9739e-05
6 *17:5 *108:30 0
7 *17:15 *13157:A 0
8 *17:15 *13165:CLK 0
9 *17:15 *20:8 8.53726e-05
10 *17:15 *26:74 0.000103209
11 *17:15 *93:12 0
12 *17:15 *95:8 0
13 *17:15 *100:45 0
14 *17:15 *108:24 0.000112274
*RES
1 clk *17:5 188.821 
2 *17:5 *17:15 41.0558 
3 *17:15 *13167:A 23 
*END

*D_NET *18 0.00222338
*CONN
*P rst I
*I *13178:A I *D sky130_fd_sc_hd__clkbuf_4
*CAP
1 rst 0.00111169
2 *13178:A 0
3 *18:13 0.00111169
4 *18:13 *107:8 0
*RES
1 rst *18:13 30.6942 
2 *18:13 *13178:A 23 
*END

*D_NET *19 0.000451633
*CONN
*I *13164:D I *D sky130_fd_sc_hd__dfrtp_1
*I *13088:Y O *D sky130_fd_sc_hd__inv_2
*CAP
1 *13164:D 0
2 *13088:Y 9.92462e-05
3 *19:10 9.92462e-05
4 *19:10 *39:10 8.4047e-05
5 *19:10 *90:14 5.50106e-05
6 *19:10 *90:22 0
7 *19:10 *94:10 0.000114083
*RES
1 *13088:Y *19:10 40.175 
2 *19:10 *13164:D 38 
*END

*D_NET *20 0.000721604
*CONN
*I *13165:D I *D sky130_fd_sc_hd__dfrtp_1
*I *13157:X O *D sky130_fd_sc_hd__xor2_1
*CAP
1 *13165:D 0.000222931
2 *13157:X 9.51843e-05
3 *20:8 0.000318116
4 *20:8 *92:16 0
5 *17:15 *20:8 8.53726e-05
*RES
1 *13157:X *20:8 40.2579 
2 *20:8 *13165:D 41.0243 
*END

*D_NET *21 0.00082165
*CONN
*I *13166:D I *D sky130_fd_sc_hd__dfrtp_4
*I *13160:X O *D sky130_fd_sc_hd__clkbuf_1
*CAP
1 *13166:D 0
2 *13160:X 0.000337145
3 *21:8 0.000337145
4 *21:8 *13166:CLK 1.94812e-05
5 *21:8 *108:24 0.000127879
*RES
1 *13160:X *21:8 28.4064 
2 *21:8 *13166:D 23 
*END

*D_NET *22 0.000176484
*CONN
*I *13164:RESET_B I *D sky130_fd_sc_hd__dfrtp_1
*I *13161:Y O *D sky130_fd_sc_hd__inv_2
*CAP
1 *13164:RESET_B 0
2 *13161:Y 8.82422e-05
3 *22:8 8.82422e-05
4 *22:8 *27:10 0
5 *22:8 *90:8 0
*RES
1 *13161:Y *22:8 39.5536 
2 *22:8 *13164:RESET_B 15 
*END

*D_NET *23 0.000406172
*CONN
*I *13165:RESET_B I *D sky130_fd_sc_hd__dfrtp_1
*I *13162:Y O *D sky130_fd_sc_hd__inv_2
*CAP
1 *13165:RESET_B 8.57235e-05
2 *13162:Y 8.57235e-05
3 *13165:RESET_B *13162:A 1.24376e-05
4 *13165:RESET_B *100:47 0.000222287
*RES
1 *13162:Y *13165:RESET_B 25.4546 
*END

*D_NET *24 0.000340058
*CONN
*I *13166:RESET_B I *D sky130_fd_sc_hd__dfrtp_4
*I *13163:Y O *D sky130_fd_sc_hd__inv_2
*CAP
1 *13166:RESET_B 0
2 *13163:Y 0.000112987
3 *24:8 0.000112987
4 *24:8 *92:16 0.000114083
*RES
1 *13163:Y *24:8 40.2579 
2 *24:8 *13166:RESET_B 15 
*END

*D_NET *25 0.00890024
*CONN
*I *13088:A I *D sky130_fd_sc_hd__inv_2
*I *13157:A I *D sky130_fd_sc_hd__xor2_1
*I *13090:A I *D sky130_fd_sc_hd__and3_2
*I *13108:A I *D sky130_fd_sc_hd__nor3_2
*I *13100:A I *D sky130_fd_sc_hd__or3b_1
*I *13091:C I *D sky130_fd_sc_hd__nand3b_2
*I *13158:A1 I *D sky130_fd_sc_hd__a21boi_1
*I *13095:C I *D sky130_fd_sc_hd__and3b_1
*I *13096:A1 I *D sky130_fd_sc_hd__a211oi_1
*I *13112:C_N I *D sky130_fd_sc_hd__or3b_2
*I *13087:X O *D sky130_fd_sc_hd__clkbuf_4
*CAP
1 *13088:A 0.000136367
2 *13157:A 0.000427409
3 *13090:A 0
4 *13108:A 9.98584e-06
5 *13100:A 0
6 *13091:C 2.14194e-05
7 *13158:A1 0.000103283
8 *13095:C 0
9 *13096:A1 0
10 *13112:C_N 6.10842e-05
11 *13087:X 0
12 *25:85 0.000138227
13 *25:56 0.00025605
14 *25:43 0.000342484
15 *25:30 0.000360261
16 *25:24 0.00017412
17 *25:22 0.000258301
18 *25:20 0.000285985
19 *25:12 0.000199166
20 *25:10 0.000823442
21 *25:4 0.000532399
22 *13088:A *90:14 5.70419e-05
23 *13091:C *26:42 5.90675e-06
24 *13108:A *13108:B 4.00259e-06
25 *13112:C_N *26:50 5.3304e-05
26 *13112:C_N *28:10 4.67269e-05
27 *13112:C_N *48:18 9.84794e-05
28 *13112:C_N *48:48 4.08664e-05
29 *13157:A *13157:B 9.84851e-05
30 *13157:A *13165:CLK 0
31 *13157:A *92:20 1.83564e-05
32 *13157:A *95:8 0.000360161
33 *13158:A1 *13095:A_N 5.50049e-05
34 *13158:A1 *13158:A2 1.14154e-05
35 *13158:A1 *13159:B 6.26126e-05
36 *13158:A1 *26:65 7.53384e-06
37 *13158:A1 *26:74 0.000188955
38 *13158:A1 *32:78 0.000300018
39 *25:10 *13092:B 2.24608e-05
40 *25:10 *39:10 0
41 *25:10 *44:8 0
42 *25:10 *90:22 0
43 *25:10 *92:20 0.000103019
44 *25:10 *92:39 3.41052e-05
45 *25:10 *96:34 6.17437e-06
46 *25:20 *13108:B 4.79641e-05
47 *25:20 *13108:C 1.14154e-05
48 *25:20 *26:12 0.00026064
49 *25:20 *26:42 2.93747e-05
50 *25:20 *92:59 0.000214935
51 *25:20 *92:63 3.53115e-05
52 *25:22 *13091:B 5.3304e-05
53 *25:22 *13112:B 2.02872e-05
54 *25:22 *26:42 4.34973e-05
55 *25:24 *13091:B 5.50049e-05
56 *25:24 *13112:B 2.02872e-05
57 *25:24 *26:42 7.42621e-05
58 *25:24 *28:10 0.000128723
59 *25:30 *26:42 4.95081e-05
60 *25:30 *26:44 0.000168687
61 *25:30 *26:50 8.97887e-05
62 *25:30 *28:10 0.000312342
63 *25:30 *29:23 0
64 *25:30 *30:36 0
65 *25:30 *82:27 2.71291e-05
66 *25:43 *26:50 0.000391663
67 *25:43 *26:65 1.01436e-05
68 *25:43 *82:27 0.000108662
69 *25:56 *26:65 0.000334288
70 *25:56 *32:6 0.000228909
71 *25:56 *32:78 0.00010018
72 *25:85 *13112:B 6.25829e-05
73 *25:85 *13168:A 7.45175e-05
74 *25:85 *28:34 0.000188916
75 *25:85 *29:8 5.3304e-05
76 *17:15 *13157:A 0
*RES
1 *13087:X *25:4 23 
2 *25:4 *25:10 22.105 
3 *25:10 *25:12 15 
4 *25:12 *25:20 7.95429 
5 *25:20 *25:22 1.57429 
6 *25:22 *25:24 2.05071 
7 *25:24 *25:30 19.3293 
8 *25:30 *13112:C_N 40.0714 
9 *25:30 *25:43 5.42714 
10 *25:43 *13096:A1 38 
11 *25:43 *25:56 20.7379 
12 *25:56 *13095:C 23 
13 *25:56 *13158:A1 27.93 
14 *25:24 *13091:C 23.4971 
15 *25:22 *25:85 33.5836 
16 *25:85 *13100:A 23 
17 *25:20 *13108:A 23.4971 
18 *25:12 *13090:A 23 
19 *25:10 *13157:A 47.4664 
20 *25:4 *13088:A 26.0243 
*END

*D_NET *26 0.0085756
*CONN
*I *13090:B I *D sky130_fd_sc_hd__and3_2
*I *13108:B I *D sky130_fd_sc_hd__nor3_2
*I *13091:A_N I *D sky130_fd_sc_hd__nand3b_2
*I *13112:A I *D sky130_fd_sc_hd__or3b_2
*I *13157:B I *D sky130_fd_sc_hd__xor2_1
*I *13158:A2 I *D sky130_fd_sc_hd__a21boi_1
*I *13095:B I *D sky130_fd_sc_hd__and3b_1
*I *13096:C1 I *D sky130_fd_sc_hd__a211oi_1
*I *13092:C_N I *D sky130_fd_sc_hd__nor3b_1
*I *13100:B I *D sky130_fd_sc_hd__or3b_1
*I *13089:X O *D sky130_fd_sc_hd__buf_2
*CAP
1 *13090:B 0
2 *13108:B 3.5343e-05
3 *13091:A_N 0
4 *13112:A 0
5 *13157:B 0.000291278
6 *13158:A2 2.19e-05
7 *13095:B 4.22989e-05
8 *13096:C1 5.73256e-05
9 *13092:C_N 0.000249443
10 *13100:B 0.000109831
11 *13089:X 9.82818e-05
12 *26:74 0.0004975
13 *26:65 0.000508461
14 *26:50 0.000623485
15 *26:44 0.000356267
16 *26:42 0.00028905
17 *26:38 0.000328693
18 *26:16 0.000428372
19 *26:12 0.000635691
20 *26:8 0.000588627
21 *13092:C_N *13092:A 5.67058e-05
22 *13092:C_N *13092:B 6.09892e-05
23 *13092:C_N *13100:C_N 8.09197e-05
24 *13092:C_N *13179:A 0
25 *13092:C_N *29:6 8.1796e-05
26 *13092:C_N *29:8 2.4754e-05
27 *13096:C1 *13096:B1 3.22879e-05
28 *13100:B *29:8 7.73389e-05
29 *13108:B *13108:C 2.02517e-05
30 *13108:B *92:63 9.84851e-05
31 *13157:B *13159:B 1.76557e-05
32 *13157:B *32:78 2.93845e-05
33 *13157:B *89:10 8.1796e-05
34 *26:8 *27:8 0.000143655
35 *26:8 *92:16 6.46633e-05
36 *26:8 *92:59 2.45549e-06
37 *26:12 *92:59 7.18992e-06
38 *26:16 *13168:A 4.08641e-05
39 *26:38 *13168:A 5.30518e-05
40 *26:38 *44:8 0
41 *26:42 *13091:B 9.84794e-05
42 *26:42 *48:48 5.90675e-06
43 *26:42 *92:63 0.000137651
44 *26:44 *48:48 4.9662e-05
45 *26:50 *28:10 2.4754e-05
46 *26:50 *30:36 0
47 *26:50 *48:48 2.32101e-05
48 *26:50 *96:64 0
49 *26:65 *32:6 1.21972e-05
50 *26:65 *33:8 4.2361e-05
51 *26:65 *96:64 0
52 *26:65 *108:30 0
53 *26:74 *13095:A_N 5.50049e-05
54 *26:74 *13159:B 1.76557e-05
55 *13091:C *26:42 5.90675e-06
56 *13108:A *13108:B 4.00259e-06
57 *13112:C_N *26:50 5.3304e-05
58 *13157:A *13157:B 9.84851e-05
59 *13158:A1 *13158:A2 1.14154e-05
60 *13158:A1 *26:65 7.53384e-06
61 *13158:A1 *26:74 0.000188955
62 *17:15 *26:74 0.000103209
63 *25:20 *13108:B 4.79641e-05
64 *25:20 *26:12 0.00026064
65 *25:20 *26:42 2.93747e-05
66 *25:22 *26:42 4.34973e-05
67 *25:24 *26:42 7.42621e-05
68 *25:30 *26:42 4.95081e-05
69 *25:30 *26:44 0.000168687
70 *25:30 *26:50 8.97887e-05
71 *25:43 *26:50 0.000391663
72 *25:43 *26:65 1.01436e-05
73 *25:56 *26:65 0.000334288
*RES
1 *13089:X *26:8 26.0243 
2 *26:8 *26:12 22.2914 
3 *26:12 *26:16 16.2014 
4 *26:16 *13100:B 24.5743 
5 *26:16 *13092:C_N 28.3029 
6 *26:12 *26:38 16.5536 
7 *26:38 *26:42 5.40643 
8 *26:42 *26:44 2.05071 
9 *26:44 *26:50 21.8771 
10 *26:50 *13096:C1 39.0979 
11 *26:50 *26:65 21.9186 
12 *26:65 *13095:B 23.8493 
13 *26:65 *26:74 4.90929 
14 *26:74 *13158:A2 23.4971 
15 *26:74 *13157:B 29.3386 
16 *26:44 *13112:A 23 
17 *26:42 *13091:A_N 23 
18 *26:38 *13108:B 24.595 
19 *26:8 *13090:B 23 
*END

*D_NET *27 0.0100258
*CONN
*I *13129:B1 I *D sky130_fd_sc_hd__a32o_1
*I *13098:A2 I *D sky130_fd_sc_hd__a211o_2
*I *13106:A2 I *D sky130_fd_sc_hd__a211o_1
*I *13156:A2 I *D sky130_fd_sc_hd__a221o_4
*I *13090:X O *D sky130_fd_sc_hd__and3_2
*CAP
1 *13129:B1 2.07674e-05
2 *13098:A2 0.000336695
3 *13106:A2 6.27861e-05
4 *13156:A2 0.000113807
5 *13090:X 0.000351858
6 *27:39 0.000585906
7 *27:35 0.00115256
8 *27:25 0.00155423
9 *27:10 0.00108046
10 *27:8 0.000751186
11 *13098:A2 *13098:A1 0
12 *13098:A2 *31:8 0
13 *13098:A2 *32:14 0
14 *13098:A2 *40:10 3.70187e-05
15 *13098:A2 *41:12 5.3297e-05
16 *13098:A2 *105:68 0
17 *13098:A2 *106:88 2.68751e-05
18 *13106:A2 *13101:A 0
19 *13106:A2 *32:48 9.58714e-05
20 *13106:A2 *48:18 4.9662e-05
21 *13129:B1 *13129:A3 4.13074e-05
22 *13129:B1 *13129:B2 2.26338e-05
23 *13156:A2 *13156:C1 3.50862e-06
24 *13156:A2 *39:10 0
25 *27:8 *13089:A 0.0001042
26 *27:8 *92:16 7.9567e-06
27 *27:10 *13165:CLK 0
28 *27:10 *91:27 8.4047e-05
29 *27:10 *94:10 0
30 *27:25 *13128:B 1.43322e-05
31 *27:25 *13129:A3 0.000381743
32 *27:25 *13129:B2 0.000226306
33 *27:25 *13156:B2 0.000202834
34 *27:25 *94:10 0.000442771
35 *27:25 *96:20 1.24376e-05
36 *27:25 *96:28 0.00065935
37 *27:25 *107:48 0.000481937
38 *27:35 *13128:B 4.73559e-06
39 *27:35 *13129:A3 2.39868e-05
40 *27:35 *36:12 0.00011991
41 *27:35 *48:48 0.000125894
42 *27:35 *96:34 8.98343e-05
43 *27:39 *39:38 5.21127e-05
44 *27:39 *40:10 0.000136486
45 *27:39 *96:34 1.02387e-05
46 *27:39 *96:47 1.84226e-05
47 *27:39 *106:88 0.000342134
48 *22:8 *27:10 0
49 *26:8 *27:8 0.000143655
*RES
1 *13090:X *27:8 43.3857 
2 *27:8 *27:10 7.18786 
3 *27:10 *13156:A2 39.4707 
4 *27:10 *27:25 33.1146 
5 *27:25 *27:35 44.2204 
6 *27:35 *27:39 19.7229 
7 *27:39 *13106:A2 39.595 
8 *27:39 *13098:A2 44.1314 
9 *27:25 *13129:B1 23.8493 
*END

*D_NET *28 0.00562468
*CONN
*I *13144:B I *D sky130_fd_sc_hd__nor2_1
*I *13128:B I *D sky130_fd_sc_hd__nor2_1
*I *13094:A2_N I *D sky130_fd_sc_hd__a2bb2o_1
*I *13105:B I *D sky130_fd_sc_hd__nor2_1
*I *13091:Y O *D sky130_fd_sc_hd__nand3b_2
*CAP
1 *13144:B 0
2 *13128:B 0.000635293
3 *13094:A2_N 0
4 *13105:B 0
5 *13091:Y 0
6 *28:34 0.000970783
7 *28:18 0.000175284
8 *28:10 0.000532966
9 *28:4 0.000693171
10 *13128:B *13129:A3 1.71773e-05
11 *13128:B *13129:B2 5.40522e-05
12 *13128:B *13130:B1 3.26241e-05
13 *13128:B *13144:A 5.55743e-06
14 *13128:B *64:8 0.000352567
15 *13128:B *106:101 0.000145163
16 *13128:B *110:72 0.000138859
17 *28:10 *13112:B 0.000314157
18 *28:10 *48:18 0.000128725
19 *28:10 *96:64 5.50049e-05
20 *28:18 *32:14 0.000133518
21 *28:18 *82:33 7.15126e-05
22 *28:18 *96:64 0.000156943
23 *28:34 *13168:A 0.000133429
24 *28:34 *36:12 0.000118203
25 *28:34 *36:29 3.91643e-05
26 *28:34 *48:48 0
27 *13112:C_N *28:10 4.67269e-05
28 *25:24 *28:10 0.000128723
29 *25:30 *28:10 0.000312342
30 *25:85 *28:34 0.000188916
31 *26:50 *28:10 2.4754e-05
32 *27:25 *13128:B 1.43322e-05
33 *27:35 *13128:B 4.73559e-06
*RES
1 *13091:Y *28:4 23 
2 *28:4 *28:10 10.1914 
3 *28:10 *28:18 34.1843 
4 *28:18 *13105:B 23 
5 *28:10 *13094:A2_N 23 
6 *28:4 *28:34 38.2443 
7 *28:34 *13128:B 35.3664 
8 *28:34 *13144:B 23 
*END

*D_NET *29 0.00338013
*CONN
*I *13179:A I *D sky130_fd_sc_hd__buf_1
*I *13094:B1 I *D sky130_fd_sc_hd__a2bb2o_1
*I *13104:A1 I *D sky130_fd_sc_hd__a22o_1
*I *13092:Y O *D sky130_fd_sc_hd__nor3b_1
*CAP
1 *13179:A 2.0995e-05
2 *13094:B1 0
3 *13104:A1 0.000184908
4 *13092:Y 2.68486e-05
5 *29:23 0.000117538
6 *29:8 0.000710445
7 *29:6 0.000455843
8 *13104:A1 *13124:A1 0.000156657
9 *13104:A1 *13124:A2 0
10 *13104:A1 *36:29 0.000527719
11 *13104:A1 *39:38 2.93747e-05
12 *13179:A *13100:C_N 1.14154e-05
13 *29:6 *13100:C_N 5.29672e-05
14 *29:8 *13100:C_N 0.000116141
15 *29:8 *36:29 0.000526319
16 *29:23 *13124:A1 0.000194318
17 *29:23 *30:36 1.14452e-05
18 *29:23 *82:27 0
19 *13092:C_N *13179:A 0
20 *13092:C_N *29:6 8.1796e-05
21 *13092:C_N *29:8 2.4754e-05
22 *13100:B *29:8 7.73389e-05
23 *25:30 *29:23 0
24 *25:85 *29:8 5.3304e-05
*RES
1 *13092:Y *29:6 24.5743 
2 *29:6 *29:8 10.15 
3 *29:8 *13104:A1 29.3593 
4 *29:8 *29:23 32.61 
5 *29:23 *13094:B1 23 
6 *29:6 *13179:A 23.4971 
*END

*D_NET *30 0.00623569
*CONN
*I *13096:B1 I *D sky130_fd_sc_hd__a211oi_1
*I *13094:B2 I *D sky130_fd_sc_hd__a2bb2o_1
*I *13124:A1 I *D sky130_fd_sc_hd__a21oi_1
*I *13109:A1 I *D sky130_fd_sc_hd__o21ai_1
*I *13110:A1 I *D sky130_fd_sc_hd__a21oi_1
*I *13093:X O *D sky130_fd_sc_hd__and2_1
*CAP
1 *13096:B1 0.000111249
2 *13094:B2 0
3 *13124:A1 0.000780651
4 *13109:A1 0
5 *13110:A1 3.47751e-05
6 *13093:X 0.000240133
7 *30:36 0.00102919
8 *30:32 0.000668096
9 *30:16 0.00030493
10 *30:10 0.000578459
11 *30:8 0.000240133
12 *13110:A1 *13109:A2 7.88926e-05
13 *13110:A1 *13110:B1 5.67058e-05
14 *13110:A1 *98:8 4.66047e-05
15 *13124:A1 *13102:B2 4.04598e-06
16 *13124:A1 *13104:A2 7.59794e-05
17 *13124:A1 *13115:B 2.80924e-06
18 *13124:A1 *32:24 0
19 *13124:A1 *36:29 5.61255e-06
20 *13124:A1 *39:38 5.50049e-05
21 *13124:A1 *59:10 1.21972e-05
22 *13124:A1 *82:27 0
23 *13124:A1 *96:64 4.6318e-06
24 *30:8 *32:14 0
25 *30:8 *34:8 0
26 *30:8 *96:64 0
27 *30:8 *96:79 6.68793e-05
28 *30:16 *13098:A1 0.000455459
29 *30:16 *13109:A2 2.4754e-05
30 *30:16 *13110:B1 0.000143655
31 *30:16 *98:8 0.000297049
32 *30:32 *13098:A1 3.91386e-05
33 *30:32 *13098:B1 0.000137618
34 *30:32 *13098:C1 2.32101e-05
35 *30:36 *96:64 0.000323111
36 *13096:C1 *13096:B1 3.22879e-05
37 *13104:A1 *13124:A1 0.000156657
38 *25:30 *30:36 0
39 *26:50 *30:36 0
40 *29:23 *13124:A1 0.000194318
41 *29:23 *30:36 1.14452e-05
*RES
1 *13093:X *30:8 42.3707 
2 *30:8 *30:10 15 
3 *30:10 *30:16 9.83929 
4 *30:16 *13110:A1 24.5743 
5 *30:16 *13109:A1 23 
6 *30:10 *30:32 5.63429 
7 *30:32 *30:36 20.4271 
8 *30:36 *13124:A1 49.9107 
9 *30:36 *13094:B2 38 
10 *30:32 *13096:B1 25.0507 
*END

*D_NET *31 0.000960076
*CONN
*I *13098:B1 I *D sky130_fd_sc_hd__a211o_2
*I *13094:X O *D sky130_fd_sc_hd__a2bb2o_1
*CAP
1 *13098:B1 4.28899e-05
2 *13094:X 0.000213384
3 *31:8 0.000256274
4 *13098:B1 *13098:C1 5.90075e-05
5 *31:8 *32:14 0.00020376
6 *31:8 *41:12 4.71429e-05
7 *13098:A2 *31:8 0
8 *30:32 *13098:B1 0.000137618
*RES
1 *13094:X *31:8 42.7229 
2 *31:8 *13098:B1 39.595 
*END

*D_NET *32 0.0106098
*CONN
*I *13159:A I *D sky130_fd_sc_hd__or2_1
*I *13097:B1 I *D sky130_fd_sc_hd__o22a_1
*I *13102:B1 I *D sky130_fd_sc_hd__o22a_1
*I *13146:B2 I *D sky130_fd_sc_hd__a2bb2o_1
*I *13127:A1 I *D sky130_fd_sc_hd__o21a_1
*I *13095:X O *D sky130_fd_sc_hd__and3b_1
*CAP
1 *13159:A 0
2 *13097:B1 4.04241e-05
3 *13102:B1 0
4 *13146:B2 0.000648475
5 *13127:A1 2.18824e-05
6 *13095:X 0
7 *32:78 0.000665485
8 *32:48 0.000573035
9 *32:24 0.00141994
10 *32:14 0.0017594
11 *32:6 0.000971684
12 *32:4 0.00115996
13 *13097:B1 *13097:B2 2.02517e-05
14 *13097:B1 *96:66 5.67058e-05
15 *13146:B2 *13146:A2_N 2.95423e-05
16 *13146:B2 *36:12 0.000189857
17 *13146:B2 *44:31 9.95756e-05
18 *13146:B2 *44:39 0.000244795
19 *13146:B2 *80:10 5.82853e-05
20 *13146:B2 *82:8 9.41704e-05
21 *32:6 *13097:B2 0.000182826
22 *32:6 *96:66 1.22822e-05
23 *32:14 *34:8 8.85189e-05
24 *32:14 *40:10 0
25 *32:14 *41:12 0
26 *32:14 *96:47 6.7177e-06
27 *32:14 *96:64 0.000122968
28 *32:24 *39:30 0.000113389
29 *32:24 *39:38 4.96824e-05
30 *32:24 *96:34 0.000107735
31 *32:24 *96:47 5.93381e-05
32 *32:48 *13101:A 0.000182826
33 *32:48 *36:33 2.02872e-05
34 *32:48 *42:10 5.3304e-05
35 *32:48 *44:56 9.53602e-05
36 *32:48 *48:18 0.000110374
37 *32:48 *96:47 0.000140259
38 *32:48 *105:57 6.07611e-06
39 *32:48 *105:68 9.03054e-05
40 *32:78 *92:100 1.02561e-05
41 *32:78 *95:8 0
42 *13098:A2 *32:14 0
43 *13106:A2 *32:48 9.58714e-05
44 *13124:A1 *32:24 0
45 *13157:B *32:78 2.93845e-05
46 *13158:A1 *32:78 0.000300018
47 *25:56 *32:6 0.000228909
48 *25:56 *32:78 0.00010018
49 *26:65 *32:6 1.21972e-05
50 *28:18 *32:14 0.000133518
51 *30:8 *32:14 0
52 *31:8 *32:14 0.00020376
*RES
1 *13095:X *32:4 23 
2 *32:4 *32:6 7.29143 
3 *32:6 *32:14 24.0107 
4 *32:14 *32:24 29.0857 
5 *32:24 *13127:A1 23.4971 
6 *32:24 *13146:B2 36.5057 
7 *32:14 *32:48 41.3307 
8 *32:48 *13102:B1 38 
9 *32:6 *13097:B1 24.4707 
10 *32:4 *32:78 38.5757 
11 *32:78 *13159:A 23 
*END

*D_NET *33 0.000678739
*CONN
*I *13097:B2 I *D sky130_fd_sc_hd__o22a_1
*I *13096:Y O *D sky130_fd_sc_hd__a211oi_1
*CAP
1 *13097:B2 7.45681e-05
2 *13096:Y 8.378e-05
3 *33:8 0.000158348
4 *13097:B2 *13097:A2 2.32101e-05
5 *13097:B2 *13111:B 2.16583e-05
6 *13097:B2 *96:66 2.93747e-05
7 *33:8 *96:64 4.2361e-05
8 *13097:B1 *13097:B2 2.02517e-05
9 *26:65 *33:8 4.2361e-05
10 *32:6 *13097:B2 0.000182826
*RES
1 *13096:Y *33:8 39.9057 
2 *33:8 *13097:B2 40.5479 
*END

*D_NET *34 0.000466659
*CONN
*I *13098:C1 I *D sky130_fd_sc_hd__a211o_2
*I *13097:X O *D sky130_fd_sc_hd__o22a_1
*CAP
1 *13098:C1 8.38624e-05
2 *13097:X 6.4099e-05
3 *34:8 0.000147961
4 *13098:B1 *13098:C1 5.90075e-05
5 *30:8 *34:8 0
6 *30:32 *13098:C1 2.32101e-05
7 *32:14 *34:8 8.85189e-05
*RES
1 *13097:X *34:8 39.2014 
2 *34:8 *13098:C1 39.9471 
*END

*D_NET *35 0.00192369
*CONN
*I *13101:A I *D sky130_fd_sc_hd__nor2_1
*I *13104:A2 I *D sky130_fd_sc_hd__a22o_1
*I *13124:B1 I *D sky130_fd_sc_hd__a21oi_1
*I *13099:X O *D sky130_fd_sc_hd__and2_1
*CAP
1 *13101:A 0.00019238
2 *13104:A2 5.17222e-05
3 *13124:B1 0
4 *13099:X 0.00021605
5 *35:12 5.17222e-05
6 *35:10 0.00040843
7 *13101:A *36:29 0.000188916
8 *13101:A *36:33 8.52481e-05
9 *13101:A *36:43 7.44688e-05
10 *13101:A *37:8 1.12487e-05
11 *13101:A *42:10 8.4047e-05
12 *13101:A *48:18 2.32004e-05
13 *13101:A *59:12 2.55642e-05
14 *13101:A *106:88 6.7177e-06
15 *13104:A2 *36:29 5.41288e-05
16 *13104:A2 *59:10 1.24376e-05
17 *35:10 *59:12 0.000138718
18 *35:10 *106:88 3.98859e-05
19 *13106:A2 *13101:A 0
20 *13124:A1 *13104:A2 7.59794e-05
21 *32:48 *13101:A 0.000182826
*RES
1 *13099:X *35:10 41.48 
2 *35:10 *35:12 15 
3 *35:12 *13124:B1 23 
4 *35:12 *13104:A2 24.5743 
5 *35:10 *13101:A 43.51 
*END

*D_NET *36 0.00791538
*CONN
*I *13101:B I *D sky130_fd_sc_hd__nor2_1
*I *13126:A_N I *D sky130_fd_sc_hd__and2b_1
*I *13146:A1_N I *D sky130_fd_sc_hd__a2bb2o_1
*I *13100:X O *D sky130_fd_sc_hd__or3b_1
*CAP
1 *13101:B 0
2 *13126:A_N 0
3 *13146:A1_N 0
4 *13100:X 0
5 *36:43 0.000574203
6 *36:33 0.000608515
7 *36:29 0.000810748
8 *36:12 0.000569135
9 *36:6 0.00134557
10 *36:12 *44:31 0.00010766
11 *36:12 *48:48 0
12 *36:12 *80:10 0.000164392
13 *36:12 *81:10 6.35028e-05
14 *36:12 *106:118 7.42423e-05
15 *36:29 *40:10 0.000180224
16 *36:29 *48:48 0
17 *36:29 *59:10 3.91386e-05
18 *36:29 *106:88 0.000104133
19 *36:33 *48:18 0.000141954
20 *36:43 *13130:A1 6.03737e-05
21 *36:43 *37:8 0.000110922
22 *36:43 *44:39 0.000255427
23 *36:43 *44:56 0
24 *36:43 *48:18 5.50106e-05
25 *36:43 *59:12 0.000343057
26 *36:43 *62:10 0.000175135
27 *36:43 *105:33 7.76364e-06
28 *36:43 *105:68 6.43253e-05
29 *36:43 *109:33 0.000110116
30 *13101:A *36:29 0.000188916
31 *13101:A *36:33 8.52481e-05
32 *13101:A *36:43 7.44688e-05
33 *13104:A1 *36:29 0.000527719
34 *13104:A2 *36:29 5.41288e-05
35 *13124:A1 *36:29 5.61255e-06
36 *13146:B2 *36:12 0.000189857
37 *27:35 *36:12 0.00011991
38 *28:34 *36:12 0.000118203
39 *28:34 *36:29 3.91643e-05
40 *29:8 *36:29 0.000526319
41 *32:48 *36:33 2.02872e-05
*RES
1 *13100:X *36:6 38 
2 *36:6 *36:12 27.4079 
3 *36:12 *13146:A1_N 23 
4 *36:6 *36:29 48.0214 
5 *36:29 *36:33 16.5743 
6 *36:33 *36:43 45.4736 
7 *36:43 *13126:A_N 23 
8 *36:33 *13101:B 23 
*END

*D_NET *37 0.000873603
*CONN
*I *13102:B2 I *D sky130_fd_sc_hd__o22a_1
*I *13101:Y O *D sky130_fd_sc_hd__nor2_1
*CAP
1 *13102:B2 0.000124517
2 *13101:Y 5.44237e-05
3 *37:8 0.000178941
4 *13102:B2 *13102:A1 4.96717e-05
5 *13102:B2 *13115:B 0.000223692
6 *13102:B2 *13124:A2 2.9853e-05
7 *13102:B2 *59:10 0
8 *37:8 *42:10 8.62876e-05
9 *13101:A *37:8 1.12487e-05
10 *13124:A1 *13102:B2 4.04598e-06
11 *36:43 *37:8 0.000110922
*RES
1 *13101:Y *37:8 39.5536 
2 *37:8 *13102:B2 41.3764 
*END

*D_NET *38 0.000627329
*CONN
*I *13115:A I *D sky130_fd_sc_hd__or4_1
*I *13102:X O *D sky130_fd_sc_hd__o22a_1
*CAP
1 *13115:A 0.00015687
2 *13102:X 0.00015687
3 *13115:A *13115:B 9.4713e-05
4 *13115:A *13115:C 5.50049e-05
5 *13115:A *13115:D 5.50049e-05
6 *13115:A *13124:A2 0.000108866
*RES
1 *13102:X *13115:A 49.9771 
*END

*D_NET *39 0.00654565
*CONN
*I *13156:B1 I *D sky130_fd_sc_hd__a221o_4
*I *13147:A2 I *D sky130_fd_sc_hd__a211o_1
*I *13130:A2 I *D sky130_fd_sc_hd__a211o_1
*I *13104:B1 I *D sky130_fd_sc_hd__a22o_1
*I *13103:X O *D sky130_fd_sc_hd__and3b_1
*CAP
1 *13156:B1 4.51931e-05
2 *13147:A2 2.01555e-05
3 *13130:A2 0
4 *13104:B1 0
5 *13103:X 0.000391634
6 *39:38 0.000212693
7 *39:30 0.000849756
8 *39:18 0.00154349
9 *39:10 0.0013231
10 *13147:A2 *106:110 5.55743e-06
11 *13156:B1 *96:28 0.000100486
12 *39:10 *13164:CLK 3.71251e-05
13 *39:10 *90:22 3.68805e-05
14 *39:10 *91:27 2.81406e-06
15 *39:10 *94:10 0.00010403
16 *39:18 *13145:A1 0.000403155
17 *39:18 *13147:B1 7.48516e-05
18 *39:18 *106:18 0.000156053
19 *39:18 *106:20 1.73995e-05
20 *39:18 *106:110 5.58003e-05
21 *39:18 *111:49 2.83357e-05
22 *39:30 *13130:A1 3.23299e-05
23 *39:30 *13130:B1 6.12784e-05
24 *39:30 *106:20 0.000215492
25 *39:30 *106:24 9.6831e-05
26 *39:38 *96:34 0.000246729
27 *39:38 *106:88 0.000100876
28 *13104:A1 *39:38 2.93747e-05
29 *13124:A1 *39:38 5.50049e-05
30 *13156:A2 *39:10 0
31 *19:10 *39:10 8.4047e-05
32 *25:10 *39:10 0
33 *27:39 *39:38 5.21127e-05
34 *32:24 *39:30 0.000113389
35 *32:24 *39:38 4.96824e-05
*RES
1 *13103:X *39:10 44.6493 
2 *39:10 *39:18 32.3171 
3 *39:18 *39:30 41.745 
4 *39:30 *39:38 36.0486 
5 *39:38 *13104:B1 23 
6 *39:30 *13130:A2 23 
7 *39:18 *13147:A2 23.4971 
8 *39:10 *13156:B1 39.0979 
*END

*D_NET *40 0.000890152
*CONN
*I *13106:B1 I *D sky130_fd_sc_hd__a211o_1
*I *13104:X O *D sky130_fd_sc_hd__a22o_1
*CAP
1 *13106:B1 0
2 *13104:X 0.00022905
3 *40:10 0.00022905
4 *40:10 *41:12 1.14452e-05
5 *40:10 *96:47 6.68793e-05
6 *13098:A2 *40:10 3.70187e-05
7 *27:39 *40:10 0.000136486
8 *32:14 *40:10 0
9 *36:29 *40:10 0.000180224
*RES
1 *13104:X *40:10 42.3086 
2 *40:10 *13106:B1 38 
*END

*D_NET *41 0.000489523
*CONN
*I *13106:C1 I *D sky130_fd_sc_hd__a211o_1
*I *13105:Y O *D sky130_fd_sc_hd__nor2_1
*CAP
1 *13106:C1 0
2 *13105:Y 0.000188819
3 *41:12 0.000188819
4 *13098:A2 *41:12 5.3297e-05
5 *31:8 *41:12 4.71429e-05
6 *32:14 *41:12 0
7 *40:10 *41:12 1.14452e-05
*RES
1 *13105:Y *41:12 41.1486 
2 *41:12 *13106:C1 38 
*END

*D_NET *42 0.0017013
*CONN
*I *13115:B I *D sky130_fd_sc_hd__or4_1
*I *13106:X O *D sky130_fd_sc_hd__a211o_1
*CAP
1 *13115:B 0.000465823
2 *13106:X 9.22991e-05
3 *42:10 0.000558122
4 *13115:B *13124:A2 3.40295e-05
5 *13115:B *59:10 6.17437e-06
6 *13101:A *42:10 8.4047e-05
7 *13102:B2 *13115:B 0.000223692
8 *13115:A *13115:B 9.4713e-05
9 *13124:A1 *13115:B 2.80924e-06
10 *32:48 *42:10 5.3304e-05
11 *37:8 *42:10 8.62876e-05
*RES
1 *13106:X *42:10 39.8229 
2 *42:10 *13115:B 44.3386 
*END

*D_NET *43 0.00608592
*CONN
*I *13124:A2 I *D sky130_fd_sc_hd__a21oi_1
*I *13109:A2 I *D sky130_fd_sc_hd__o21ai_1
*I *13110:A2 I *D sky130_fd_sc_hd__a21oi_1
*I *13113:A1 I *D sky130_fd_sc_hd__a21oi_1
*I *13114:A1 I *D sky130_fd_sc_hd__o21a_1
*I *13121:A1 I *D sky130_fd_sc_hd__o21ai_1
*I *13107:X O *D sky130_fd_sc_hd__xor2_2
*CAP
1 *13124:A2 0.000240811
2 *13109:A2 0.00013347
3 *13110:A2 4.01155e-05
4 *13113:A1 0.000204457
5 *13114:A1 0.00011228
6 *13121:A1 0.000106192
7 *13107:X 0
8 *43:51 0.000615279
9 *43:39 0.000783018
10 *43:21 0.000422269
11 *43:6 0.000211725
12 *43:4 0.000100514
13 *13109:A2 *98:8 1.14762e-05
14 *13113:A1 *47:22 0.000253028
15 *13114:A1 *47:22 9.41435e-05
16 *13121:A1 *47:28 0.000113153
17 *13121:A1 *73:49 5.21024e-05
18 *13124:A2 *13102:A1 9.5877e-05
19 *13124:A2 *13115:C 5.67058e-05
20 *13124:A2 *13115:D 5.67058e-05
21 *13124:A2 *105:31 0.000514788
22 *43:21 *47:28 0.000271642
23 *43:21 *51:14 0.000222104
24 *43:21 *73:49 5.65594e-05
25 *43:21 *98:14 0
26 *43:39 *51:14 3.34874e-05
27 *43:39 *105:31 0.000223698
28 *43:51 *46:12 1.9574e-05
29 *43:51 *47:14 0.000338593
30 *43:51 *48:26 0.000131169
31 *43:51 *73:49 0.00029459
32 *43:51 *100:16 0
33 *13102:B2 *13124:A2 2.9853e-05
34 *13104:A1 *13124:A2 0
35 *13110:A1 *13109:A2 7.88926e-05
36 *13115:A *13124:A2 0.000108866
37 *13115:B *13124:A2 3.40295e-05
38 *30:16 *13109:A2 2.4754e-05
*RES
1 *13107:X *43:4 23 
2 *43:4 *43:6 15 
3 *43:6 *13121:A1 40.4029 
4 *43:6 *43:21 19.3707 
5 *43:21 *13114:A1 24.9471 
6 *43:21 *13113:A1 26.0036 
7 *43:4 *43:39 2.52714 
8 *43:39 *43:51 39.5079 
9 *43:51 *13110:A2 23.8493 
10 *43:51 *13109:A2 25.5271 
11 *43:39 *13124:A2 30.7886 
*END

*D_NET *44 0.00936564
*CONN
*I *13148:A1 I *D sky130_fd_sc_hd__a31o_1
*I *13109:B1 I *D sky130_fd_sc_hd__o21ai_1
*I *13131:A1 I *D sky130_fd_sc_hd__a211o_1
*I *13155:A1 I *D sky130_fd_sc_hd__a32o_1
*I *13108:Y O *D sky130_fd_sc_hd__nor3_2
*CAP
1 *13148:A1 2.18824e-05
2 *13109:B1 0
3 *13131:A1 0
4 *13155:A1 0.000215721
5 *13108:Y 0
6 *44:56 0.000887614
7 *44:39 0.00146542
8 *44:31 0.00100598
9 *44:8 0.00142234
10 *44:6 0.000800323
11 *13155:A1 *68:25 5.50106e-05
12 *13155:A1 *68:33 0.000111329
13 *13155:A1 *107:33 7.83902e-05
14 *44:8 *13145:A3 0
15 *44:8 *13168:A 0
16 *44:8 *96:28 0
17 *44:8 *104:8 0
18 *44:8 *107:33 0.000102198
19 *44:8 *107:46 9.91145e-05
20 *44:31 *13146:A2_N 5.5792e-05
21 *44:31 *68:33 0.000189848
22 *44:39 *13127:A2 0.000127956
23 *44:39 *59:12 1.50409e-05
24 *44:39 *60:10 2.56281e-05
25 *44:39 *62:10 4.57761e-05
26 *44:39 *73:37 0.000893367
27 *44:39 *106:36 0.000223795
28 *44:56 *13098:A1 0
29 *44:56 *13130:A1 0
30 *44:56 *13131:A2 5.58003e-05
31 *44:56 *46:12 0
32 *44:56 *47:14 0
33 *44:56 *66:6 0.000147656
34 *44:56 *100:16 0.000504652
35 *44:56 *105:33 0
36 *44:56 *105:57 0
37 *44:56 *105:68 0
38 *44:56 *106:36 1.21972e-05
39 *13146:B2 *44:31 9.95756e-05
40 *13146:B2 *44:39 0.000244795
41 *25:10 *44:8 0
42 *26:38 *44:8 0
43 *32:48 *44:56 9.53602e-05
44 *36:12 *44:31 0.00010766
45 *36:43 *44:39 0.000255427
46 *36:43 *44:56 0
*RES
1 *13108:Y *44:6 38 
2 *44:6 *44:8 13.8786 
3 *44:8 *13155:A1 41.8529 
4 *44:8 *44:31 24.3836 
5 *44:31 *44:39 47.6279 
6 *44:39 *13131:A1 23 
7 *44:39 *44:56 49.9893 
8 *44:56 *13109:B1 23 
9 *44:31 *13148:A1 23.4971 
*END

*D_NET *45 0.000433586
*CONN
*I *13110:B1 I *D sky130_fd_sc_hd__a21oi_1
*I *13109:Y O *D sky130_fd_sc_hd__o21ai_1
*CAP
1 *13110:B1 2.30479e-05
2 *13109:Y 2.30479e-05
3 *13110:B1 *98:8 0.000187129
4 *13110:A1 *13110:B1 5.67058e-05
5 *30:16 *13110:B1 0.000143655
*RES
1 *13109:Y *13110:B1 48.0507 
*END

*D_NET *46 0.00140826
*CONN
*I *13115:C I *D sky130_fd_sc_hd__or4_1
*I *13110:Y O *D sky130_fd_sc_hd__a21oi_1
*CAP
1 *13115:C 1.08768e-05
2 *13110:Y 0.000342663
3 *46:12 0.00035354
4 *46:12 *47:14 0.000174417
5 *46:12 *50:10 0.000141042
6 *46:12 *100:16 0.000254433
7 *13115:A *13115:C 5.50049e-05
8 *13124:A2 *13115:C 5.67058e-05
9 *43:51 *46:12 1.9574e-05
10 *44:56 *46:12 0
*RES
1 *13110:Y *46:12 46.6586 
2 *46:12 *13115:C 38.6214 
*END

*D_NET *47 0.00431193
*CONN
*I *13113:A2 I *D sky130_fd_sc_hd__a21oi_1
*I *13114:A2 I *D sky130_fd_sc_hd__o21a_1
*I *13121:A2 I *D sky130_fd_sc_hd__o21ai_1
*I *13111:X O *D sky130_fd_sc_hd__and2b_1
*CAP
1 *13113:A2 0
2 *13114:A2 0
3 *13121:A2 0
4 *13111:X 0.000588168
5 *47:28 0.000179597
6 *47:22 0.000351017
7 *47:14 0.0005374
8 *47:8 0.000954147
9 *47:14 *48:18 1.89019e-06
10 *47:14 *51:14 1.69668e-05
11 *47:14 *73:49 1.22803e-05
12 *47:22 *13114:B1 4.64812e-05
13 *47:22 *48:18 0.000153067
14 *47:22 *48:26 5.50106e-05
15 *47:28 *73:49 2.04774e-05
16 *47:28 *98:14 0.000150451
17 *13113:A1 *47:22 0.000253028
18 *13114:A1 *47:22 9.41435e-05
19 *13121:A1 *47:28 0.000113153
20 *43:21 *47:28 0.000271642
21 *43:51 *47:14 0.000338593
22 *44:56 *47:14 0
23 *46:12 *47:14 0.000174417
*RES
1 *13111:X *47:8 45.7679 
2 *47:8 *47:14 22.7057 
3 *47:14 *47:22 5.075 
4 *47:22 *47:28 35.7793 
5 *47:28 *13121:A2 23 
6 *47:22 *13114:A2 23 
7 *47:14 *13113:A2 23 
*END

*D_NET *48 0.00939079
*CONN
*I *13138:B1 I *D sky130_fd_sc_hd__a21oi_1
*I *13113:B1 I *D sky130_fd_sc_hd__a21oi_1
*I *13123:B1 I *D sky130_fd_sc_hd__a21oi_1
*I *13112:X O *D sky130_fd_sc_hd__or3b_2
*CAP
1 *13138:B1 0
2 *13113:B1 0
3 *13123:B1 0
4 *13112:X 0
5 *48:48 0.000970978
6 *48:26 0.000548261
7 *48:18 0.00170444
8 *48:4 0.00212716
9 *48:18 *13114:B1 1.14154e-05
10 *48:18 *50:10 0.00010723
11 *48:18 *96:47 9.17484e-05
12 *48:18 *96:64 1.76557e-05
13 *48:26 *13114:B1 5.50106e-05
14 *48:26 *56:27 1.16455e-05
15 *48:26 *73:37 1.13812e-05
16 *48:26 *73:49 0.00112213
17 *48:26 *100:16 0
18 *48:48 *13138:A2 1.14452e-05
19 *48:48 *13146:A2_N 0
20 *48:48 *13149:B 4.63352e-05
21 *48:48 *69:30 0
22 *48:48 *76:8 0.000140208
23 *48:48 *81:10 0.000158495
24 *48:48 *82:27 0.000986925
25 *48:48 *92:65 0
26 *48:48 *106:118 7.42327e-05
27 *13101:A *48:18 2.32004e-05
28 *13106:A2 *48:18 4.9662e-05
29 *13112:C_N *48:18 9.84794e-05
30 *13112:C_N *48:48 4.08664e-05
31 *26:42 *48:48 5.90675e-06
32 *26:44 *48:48 4.9662e-05
33 *26:50 *48:48 2.32101e-05
34 *27:35 *48:48 0.000125894
35 *28:10 *48:18 0.000128725
36 *28:34 *48:48 0
37 *32:48 *48:18 0.000110374
38 *36:12 *48:48 0
39 *36:29 *48:48 0
40 *36:33 *48:18 0.000141954
41 *36:43 *48:18 5.50106e-05
42 *43:51 *48:26 0.000131169
43 *47:14 *48:18 1.89019e-06
44 *47:22 *48:18 0.000153067
45 *47:22 *48:26 5.50106e-05
*RES
1 *13112:X *48:4 23 
2 *48:4 *48:18 21.0043 
3 *48:18 *48:26 45.5564 
4 *48:26 *13123:B1 23 
5 *48:18 *13113:B1 23 
6 *48:4 *48:48 35.7143 
7 *48:48 *13138:B1 38 
*END

*D_NET *49 0.00038302
*CONN
*I *13114:B1 I *D sky130_fd_sc_hd__o21a_1
*I *13113:Y O *D sky130_fd_sc_hd__a21oi_1
*CAP
1 *13114:B1 0.000120364
2 *13113:Y 0.000120364
3 *13114:B1 *50:10 2.93845e-05
4 *47:22 *13114:B1 4.64812e-05
5 *48:18 *13114:B1 1.14154e-05
6 *48:26 *13114:B1 5.50106e-05
*RES
1 *13113:Y *13114:B1 48.5686 
*END

*D_NET *50 0.00124423
*CONN
*I *13115:D I *D sky130_fd_sc_hd__or4_1
*I *13114:X O *D sky130_fd_sc_hd__o21a_1
*CAP
1 *13115:D 1.08768e-05
2 *13114:X 0.000335993
3 *50:10 0.00034687
4 *50:10 *100:16 0.000161121
5 *13114:B1 *50:10 2.93845e-05
6 *13115:A *13115:D 5.50049e-05
7 *13124:A2 *13115:D 5.67058e-05
8 *46:12 *50:10 0.000141042
9 *48:18 *50:10 0.00010723
*RES
1 *13114:X *50:10 43.7379 
2 *50:10 *13115:D 38.6214 
*END

*D_NET *51 0.00236947
*CONN
*I *13116:A I *D sky130_fd_sc_hd__buf_1
*I *13115:X O *D sky130_fd_sc_hd__or4_1
*CAP
1 *13116:A 4.70697e-05
2 *13115:X 0.000520774
3 *51:14 0.000567843
4 *13116:A *73:49 2.02872e-05
5 *13116:A *98:8 0.000103637
6 *13116:A *100:26 0.000141954
7 *51:14 *73:49 0.000558863
8 *51:14 *98:12 0
9 *51:14 *98:14 0
10 *51:14 *99:8 0
11 *51:14 *100:26 0.000136486
12 *43:21 *51:14 0.000222104
13 *43:39 *51:14 3.34874e-05
14 *47:14 *51:14 1.69668e-05
*RES
1 *13115:X *51:14 49.1857 
2 *51:14 *13116:A 40.0507 
*END

*D_NET *52 0.00133898
*CONN
*I *13126:B I *D sky130_fd_sc_hd__and2b_1
*I *13119:A I *D sky130_fd_sc_hd__nand2_1
*I *13141:B1 I *D sky130_fd_sc_hd__o21a_1
*I *13117:Y O *D sky130_fd_sc_hd__nand2_1
*CAP
1 *13126:B 0.000172922
2 *13119:A 0
3 *13141:B1 0.000113474
4 *13117:Y 7.45666e-05
5 *52:23 0.000296386
6 *52:10 0.000311505
7 *13126:B *53:23 0
8 *13126:B *59:12 6.68657e-05
9 *13141:B1 *13141:A2 4.21594e-06
10 *13141:B1 *74:10 0
11 *13141:B1 *75:10 0
12 *13141:B1 *106:50 5.50049e-05
13 *13141:B1 *106:54 4.6318e-06
14 *13141:B1 *110:32 0
15 *52:10 *75:10 0.00010018
16 *52:10 *106:50 7.68515e-05
17 *52:10 *110:59 1.5769e-05
18 *52:23 *13141:A2 2.11887e-05
19 *52:23 *59:12 2.5415e-05
20 *52:23 *71:10 0
21 *52:23 *75:10 0
*RES
1 *13117:Y *52:10 40.0714 
2 *52:10 *13141:B1 39.8229 
3 *52:10 *52:23 2.25786 
4 *52:23 *13119:A 38 
5 *52:23 *13126:B 41.3143 
*END

*D_NET *53 0.00097566
*CONN
*I *13127:B1 I *D sky130_fd_sc_hd__o21a_1
*I *13119:B I *D sky130_fd_sc_hd__nand2_1
*I *13118:X O *D sky130_fd_sc_hd__or2_1
*CAP
1 *13127:B1 0
2 *13119:B 4.84946e-05
3 *13118:X 7.01518e-05
4 *53:23 0.000303149
5 *53:6 0.000421796
6 *13119:B *54:10 5.67058e-05
7 *13119:B *106:36 0
8 *53:6 *54:10 1.41077e-05
9 *53:23 *71:10 6.12551e-05
10 *53:23 *73:37 0
11 *13126:B *53:23 0
*RES
1 *13118:X *53:6 24.0979 
2 *53:6 *13119:B 24.4707 
3 *53:6 *53:23 34.4329 
4 *53:23 *13127:B1 23 
*END

*D_NET *54 0.00301235
*CONN
*I *13137:A1 I *D sky130_fd_sc_hd__a21o_1
*I *13125:A I *D sky130_fd_sc_hd__xor2_1
*I *13123:A1 I *D sky130_fd_sc_hd__a21oi_1
*I *13122:A I *D sky130_fd_sc_hd__or2_1
*I *13119:Y O *D sky130_fd_sc_hd__nand2_1
*CAP
1 *13137:A1 0
2 *13125:A 0.000172326
3 *13123:A1 0
4 *13122:A 0.000193194
5 *13119:Y 0.000348172
6 *54:18 0.00038142
7 *54:10 0.000708725
8 *13122:A *56:12 5.45541e-05
9 *13122:A *56:19 3.91338e-05
10 *13122:A *73:37 5.3304e-05
11 *13125:A *13125:B 2.65879e-05
12 *13125:A *56:27 9.84851e-05
13 *13125:A *60:10 2.4754e-05
14 *54:10 *13137:B1 0.000272377
15 *54:10 *60:10 6.22615e-05
16 *54:10 *71:10 0.00024989
17 *54:10 *106:36 8.22171e-05
18 *54:18 *56:27 3.14596e-05
19 *54:18 *60:10 0
20 *54:18 *73:37 0.000142678
21 *13119:B *54:10 5.67058e-05
22 *53:6 *54:10 1.41077e-05
*RES
1 *13119:Y *54:10 31.7621 
2 *54:10 *54:18 33.1279 
3 *54:18 *13122:A 26.0243 
4 *54:18 *13123:A1 23 
5 *54:10 *13125:A 26.5007 
6 *54:10 *13137:A1 23 
*END

*D_NET *55 0.000110811
*CONN
*I *13121:B1 I *D sky130_fd_sc_hd__o21ai_1
*I *13120:X O *D sky130_fd_sc_hd__or2b_1
*CAP
1 *13121:B1 2.79004e-05
2 *13120:X 2.79004e-05
3 *13121:B1 *109:27 5.50106e-05
*RES
1 *13120:X *13121:B1 46.6214 
*END

*D_NET *56 0.00221932
*CONN
*I *13123:A2 I *D sky130_fd_sc_hd__a21oi_1
*I *13137:A2 I *D sky130_fd_sc_hd__a21o_1
*I *13122:B I *D sky130_fd_sc_hd__or2_1
*I *13121:Y O *D sky130_fd_sc_hd__o21ai_1
*CAP
1 *13123:A2 2.48327e-05
2 *13137:A2 0
3 *13122:B 0
4 *13121:Y 0.000277342
5 *56:27 0.000163315
6 *56:19 0.000261478
7 *56:12 0.000159634
8 *56:8 0.000363646
9 *13123:A2 *73:37 4.33627e-05
10 *56:8 *57:10 0.000165394
11 *56:8 *73:49 0
12 *56:8 *98:14 0.000297631
13 *56:12 *57:10 1.84917e-05
14 *56:12 *58:10 1.84831e-05
15 *56:19 *58:10 1.59094e-05
16 *56:19 *73:37 5.3304e-05
17 *56:27 *13125:B 1.76557e-05
18 *56:27 *60:10 5.67058e-05
19 *56:27 *73:37 4.68559e-05
20 *56:27 *98:14 0
21 *13122:A *56:12 5.45541e-05
22 *13122:A *56:19 3.91338e-05
23 *13125:A *56:27 9.84851e-05
24 *48:26 *56:27 1.16455e-05
25 *54:18 *56:27 3.14596e-05
*RES
1 *13121:Y *56:8 45.8921 
2 *56:8 *56:12 17.0507 
3 *56:12 *13122:B 23 
4 *56:12 *56:19 1.57429 
5 *56:19 *56:27 33.7079 
6 *56:27 *13137:A2 23 
7 *56:19 *13123:A2 23.6214 
*END

*D_NET *57 0.000503509
*CONN
*I *13132:A1 I *D sky130_fd_sc_hd__a21o_4
*I *13122:X O *D sky130_fd_sc_hd__or2_1
*CAP
1 *13132:A1 0
2 *13122:X 0.000123723
3 *57:10 0.000123723
4 *57:10 *58:10 6.45006e-05
5 *57:10 *73:49 7.6774e-06
6 *56:8 *57:10 0.000165394
7 *56:12 *57:10 1.84917e-05
*RES
1 *13122:X *57:10 40.8793 
2 *57:10 *13132:A1 38 
*END

*D_NET *58 0.000793506
*CONN
*I *13132:A2 I *D sky130_fd_sc_hd__a21o_4
*I *13123:Y O *D sky130_fd_sc_hd__a21oi_1
*CAP
1 *13132:A2 0.000115475
2 *13123:Y 0.000162459
3 *58:10 0.000277933
4 *58:10 *73:49 0.000138747
5 *56:12 *58:10 1.84831e-05
6 *56:19 *58:10 1.59094e-05
7 *57:10 *58:10 6.45006e-05
*RES
1 *13123:Y *58:10 41.0036 
2 *58:10 *13132:A2 39.5743 
*END

*D_NET *59 0.0042978
*CONN
*I *13125:B I *D sky130_fd_sc_hd__xor2_1
*I *13141:A2 I *D sky130_fd_sc_hd__o21a_1
*I *13124:Y O *D sky130_fd_sc_hd__a21oi_1
*CAP
1 *13125:B 0.000616385
2 *13141:A2 5.43703e-05
3 *13124:Y 5.57693e-05
4 *59:12 0.00129389
5 *59:10 0.000678902
6 *13125:B *60:10 0.000148524
7 *13125:B *71:10 0.000438468
8 *13141:A2 *106:50 4.08537e-05
9 *59:12 *60:10 0
10 *59:12 *62:10 0.000165394
11 *59:12 *106:36 0
12 *59:12 *106:50 5.09885e-05
13 *59:12 *106:88 0
14 *13101:A *59:12 2.55642e-05
15 *13102:B2 *59:10 0
16 *13104:A2 *59:10 1.24376e-05
17 *13115:B *59:10 6.17437e-06
18 *13124:A1 *59:10 1.21972e-05
19 *13125:A *13125:B 2.65879e-05
20 *13126:B *59:12 6.68657e-05
21 *13141:B1 *13141:A2 4.21594e-06
22 *35:10 *59:12 0.000138718
23 *36:29 *59:10 3.91386e-05
24 *36:43 *59:12 0.000343057
25 *44:39 *59:12 1.50409e-05
26 *52:23 *13141:A2 2.11887e-05
27 *52:23 *59:12 2.5415e-05
28 *56:27 *13125:B 1.76557e-05
*RES
1 *13124:Y *59:10 39.1186 
2 *59:10 *59:12 15.2871 
3 *59:12 *13141:A2 39.2014 
4 *59:12 *13125:B 48.0464 
*END

*D_NET *60 0.00201014
*CONN
*I *13131:A2 I *D sky130_fd_sc_hd__a211o_1
*I *13125:X O *D sky130_fd_sc_hd__xor2_1
*CAP
1 *13131:A2 3.05412e-05
2 *13125:X 0.000330927
3 *60:10 0.000361469
4 *13131:A2 *106:36 6.17437e-06
5 *60:10 *13137:B1 0.000272377
6 *60:10 *70:8 3.47781e-05
7 *60:10 *71:10 0.000228001
8 *60:10 *106:36 0.000327427
9 *60:10 *106:50 7.75329e-06
10 *60:10 *110:32 3.70187e-05
11 *13125:A *60:10 2.4754e-05
12 *13125:B *60:10 0.000148524
13 *44:39 *60:10 2.56281e-05
14 *44:56 *13131:A2 5.58003e-05
15 *54:10 *60:10 6.22615e-05
16 *54:18 *60:10 0
17 *56:27 *60:10 5.67058e-05
18 *59:12 *60:10 0
*RES
1 *13125:X *60:10 49.5171 
2 *60:10 *13131:A2 38.6214 
*END

*D_NET *61 0.000336109
*CONN
*I *13127:A2 I *D sky130_fd_sc_hd__o21a_1
*I *13126:X O *D sky130_fd_sc_hd__and2b_1
*CAP
1 *13127:A2 8.77644e-05
2 *13126:X 8.77644e-05
3 *13127:A2 *62:10 3.26241e-05
4 *44:39 *13127:A2 0.000127956
*RES
1 *13126:X *13127:A2 48.5271 
*END

*D_NET *62 0.000970967
*CONN
*I *13131:B1 I *D sky130_fd_sc_hd__a211o_1
*I *13127:X O *D sky130_fd_sc_hd__o21a_1
*CAP
1 *13131:B1 0
2 *13127:X 0.000276019
3 *62:10 0.000276019
4 *13127:A2 *62:10 3.26241e-05
5 *36:43 *62:10 0.000175135
6 *44:39 *62:10 4.57761e-05
7 *59:12 *62:10 0.000165394
*RES
1 *13127:X *62:10 43.2614 
2 *62:10 *13131:B1 38 
*END

*D_NET *63 0.000302542
*CONN
*I *13130:B1 I *D sky130_fd_sc_hd__a211o_1
*I *13128:Y O *D sky130_fd_sc_hd__nor2_1
*CAP
1 *13130:B1 8.78319e-05
2 *13128:Y 8.78319e-05
3 *13130:B1 *13130:A1 5.55743e-06
4 *13130:B1 *64:8 2.74181e-05
5 *13128:B *13130:B1 3.26241e-05
6 *39:30 *13130:B1 6.12784e-05
*RES
1 *13128:Y *13130:B1 48.0714 
*END

*D_NET *64 0.000911437
*CONN
*I *13130:C1 I *D sky130_fd_sc_hd__a211o_1
*I *13129:X O *D sky130_fd_sc_hd__a32o_1
*CAP
1 *13130:C1 0
2 *13129:X 0.000259264
3 *64:8 0.000259264
4 *64:8 *13130:A1 9.21212e-06
5 *64:8 *110:72 3.7122e-06
6 *13128:B *64:8 0.000352567
7 *13130:B1 *64:8 2.74181e-05
*RES
1 *13129:X *64:8 29.235 
2 *64:8 *13130:C1 23 
*END

*D_NET *65 0.000658523
*CONN
*I *13131:C1 I *D sky130_fd_sc_hd__a211o_1
*I *13130:X O *D sky130_fd_sc_hd__a211o_1
*CAP
1 *13131:C1 0.00015778
2 *13130:X 6.20084e-05
3 *65:8 0.000219789
4 *13131:C1 *106:24 2.95526e-05
5 *13131:C1 *106:36 0.000101506
6 *65:8 *106:88 8.78864e-05
*RES
1 *13130:X *65:8 39.2014 
2 *65:8 *13131:C1 41.3764 
*END

*D_NET *66 0.000831046
*CONN
*I *13132:B1 I *D sky130_fd_sc_hd__a21o_4
*I *13131:X O *D sky130_fd_sc_hd__a211o_1
*CAP
1 *13132:B1 0
2 *13131:X 0.000267867
3 *66:6 0.000267867
4 *66:6 *100:8 0.000147656
5 *44:56 *66:6 0.000147656
*RES
1 *13131:X *66:6 29.3386 
2 *66:6 *13132:B1 23 
*END

*D_NET *67 0.000618134
*CONN
*I *13153:A I *D sky130_fd_sc_hd__nand2_1
*I *13135:A I *D sky130_fd_sc_hd__nand2_1
*I *13133:Y O *D sky130_fd_sc_hd__nand2_1
*CAP
1 *13153:A 1.34103e-05
2 *13135:A 0.000139286
3 *13133:Y 8.17907e-05
4 *67:12 0.000172754
5 *67:8 0.000101848
6 *13135:A *13135:B 8.77027e-05
7 *13135:A *69:12 1.73399e-05
8 *13153:A *13135:B 4.00259e-06
9 *67:8 *13133:A 0
*RES
1 *13133:Y *67:8 39.2014 
2 *67:8 *67:12 15.4971 
3 *67:12 *13135:A 26.0243 
4 *67:12 *13153:A 23.4971 
*END

*D_NET *68 0.00290898
*CONN
*I *13155:A2 I *D sky130_fd_sc_hd__a32o_1
*I *13146:B1 I *D sky130_fd_sc_hd__a2bb2o_1
*I *13135:B I *D sky130_fd_sc_hd__nand2_1
*I *13134:X O *D sky130_fd_sc_hd__or2_1
*CAP
1 *13155:A2 0
2 *13146:B1 0
3 *13135:B 0.000307544
4 *13134:X 0
5 *68:33 0.00019819
6 *68:25 0.000546592
7 *68:4 0.000655946
8 *13135:B *13154:A 4.9662e-05
9 *13135:B *85:12 0.000230604
10 *13135:B *107:12 0.00010018
11 *13135:B *107:14 0.000139352
12 *68:25 *87:8 0.0002263
13 *68:25 *111:49 0
14 *68:33 *13146:A2_N 0
15 *68:33 *69:30 0
16 *68:33 *107:33 6.7177e-06
17 *13135:A *13135:B 8.77027e-05
18 *13153:A *13135:B 4.00259e-06
19 *13155:A1 *68:25 5.50106e-05
20 *13155:A1 *68:33 0.000111329
21 *44:31 *68:33 0.000189848
*RES
1 *13134:X *68:4 23 
2 *68:4 *13135:B 31.1614 
3 *68:4 *68:25 36.7114 
4 *68:25 *68:33 33.9564 
5 *68:33 *13146:B1 23 
6 *68:25 *13155:A2 23 
*END

*D_NET *69 0.00407178
*CONN
*I *13146:A2_N I *D sky130_fd_sc_hd__a2bb2o_1
*I *13138:A1 I *D sky130_fd_sc_hd__a21oi_1
*I *13142:A I *D sky130_fd_sc_hd__or2_1
*I *13143:A I *D sky130_fd_sc_hd__nand2_1
*I *13139:A1 I *D sky130_fd_sc_hd__o21a_1
*I *13135:Y O *D sky130_fd_sc_hd__nand2_1
*CAP
1 *13146:A2_N 0.000151497
2 *13138:A1 0
3 *13142:A 0.000162381
4 *13143:A 2.82021e-05
5 *13139:A1 0
6 *13135:Y 0
7 *69:34 0.000386215
8 *69:30 0.000556197
9 *69:12 0.000833955
10 *69:4 0.000986618
11 *13142:A *13138:A2 5.50106e-05
12 *13142:A *13155:B2 1.41077e-05
13 *13142:A *73:12 0
14 *13142:A *75:40 3.46673e-05
15 *13142:A *77:10 5.50106e-05
16 *13143:A *13139:A2 3.84128e-05
17 *13143:A *13143:B 1.18939e-05
18 *13143:A *75:21 1.94693e-05
19 *13143:A *77:10 3.22879e-05
20 *69:12 *13139:A2 2.33476e-05
21 *69:12 *13149:A 6.50067e-05
22 *69:12 *72:12 0.000352421
23 *69:12 *75:10 2.29192e-05
24 *69:30 *13138:A2 0
25 *69:30 *72:12 0
26 *69:30 *75:40 3.83778e-05
27 *69:30 *86:8 0
28 *69:30 *107:33 0
29 *69:34 *13138:A2 2.4754e-05
30 *69:34 *13155:B2 7.63554e-05
31 *13135:A *69:12 1.73399e-05
32 *13146:B2 *13146:A2_N 2.95423e-05
33 *44:31 *13146:A2_N 5.5792e-05
34 *48:48 *13146:A2_N 0
35 *48:48 *69:30 0
36 *68:33 *13146:A2_N 0
37 *68:33 *69:30 0
*RES
1 *13135:Y *69:4 23 
2 *69:4 *69:12 41.5793 
3 *69:12 *13139:A1 23 
4 *69:12 *13143:A 24.1186 
5 *69:4 *69:30 17.9621 
6 *69:30 *69:34 18.48 
7 *69:34 *13142:A 26.5214 
8 *69:34 *13138:A1 23 
9 *69:30 *13146:A2_N 40.5271 
*END

*D_NET *70 0.00129631
*CONN
*I *13137:B1 I *D sky130_fd_sc_hd__a21o_1
*I *13136:X O *D sky130_fd_sc_hd__and2b_1
*CAP
1 *13137:B1 4.08666e-05
2 *13136:X 0.000232642
3 *70:8 0.000273509
4 *70:8 *110:32 0.000169765
5 *54:10 *13137:B1 0.000272377
6 *60:10 *13137:B1 0.000272377
7 *60:10 *70:8 3.47781e-05
*RES
1 *13136:X *70:8 43.075 
2 *70:8 *13137:B1 41.0036 
*END

*D_NET *71 0.00377746
*CONN
*I *13138:A2 I *D sky130_fd_sc_hd__a21oi_1
*I *13139:A2 I *D sky130_fd_sc_hd__o21a_1
*I *13137:X O *D sky130_fd_sc_hd__a21o_1
*CAP
1 *13138:A2 0.000536512
2 *13139:A2 7.91764e-05
3 *13137:X 0.000417312
4 *71:14 0.000850349
5 *71:10 0.000651972
6 *13138:A2 *13149:B 0
7 *13138:A2 *13155:B2 5.70419e-05
8 *13139:A2 *13149:A 5.05059e-05
9 *13139:A2 *73:12 4.00259e-06
10 *13125:B *71:10 0.000438468
11 *13142:A *13138:A2 5.50106e-05
12 *13143:A *13139:A2 3.84128e-05
13 *48:48 *13138:A2 1.14452e-05
14 *52:23 *71:10 0
15 *53:23 *71:10 6.12551e-05
16 *54:10 *71:10 0.00024989
17 *60:10 *71:10 0.000228001
18 *69:12 *13139:A2 2.33476e-05
19 *69:30 *13138:A2 0
20 *69:34 *13138:A2 2.4754e-05
*RES
1 *13137:X *71:10 48.4711 
2 *71:10 *71:14 8.48533 
3 *71:14 *13139:A2 47.5225 
4 *71:14 *13138:A2 48.7716 
*END

*D_NET *72 0.0024471
*CONN
*I *13155:B2 I *D sky130_fd_sc_hd__a32o_1
*I *13139:B1 I *D sky130_fd_sc_hd__o21a_1
*I *13138:Y O *D sky130_fd_sc_hd__a21oi_1
*CAP
1 *13155:B2 0.000181361
2 *13139:B1 0
3 *13138:Y 0
4 *72:18 0.000116928
5 *72:12 0.000350564
6 *72:4 0.000414996
7 *13155:B2 *75:40 0.000485452
8 *72:12 *13149:A 0.000147134
9 *72:12 *13149:B 3.63499e-05
10 *72:18 *13149:A 0.000189008
11 *72:18 *75:27 2.53827e-05
12 *13138:A2 *13155:B2 5.70419e-05
13 *13142:A *13155:B2 1.41077e-05
14 *69:12 *72:12 0.000352421
15 *69:30 *72:12 0
16 *69:34 *13155:B2 7.63554e-05
*RES
1 *13138:Y *72:4 23 
2 *72:4 *72:12 35.8621 
3 *72:12 *72:18 32.61 
4 *72:18 *13139:B1 23 
5 *72:4 *13155:B2 29.3593 
*END

*D_NET *73 0.010198
*CONN
*I *13152:B I *D sky130_fd_sc_hd__nor4_1
*I *13149:A I *D sky130_fd_sc_hd__or2_2
*I *13139:X O *D sky130_fd_sc_hd__o21a_1
*CAP
1 *13152:B 0
2 *13149:A 0.000309782
3 *13139:X 6.95559e-05
4 *73:49 0.001209
5 *73:37 0.00241492
6 *73:12 0.00158527
7 *13149:A *13149:B 5.3304e-05
8 *13149:A *110:72 0
9 *73:12 *75:21 4.09944e-05
10 *73:12 *77:10 0.000123239
11 *73:37 *110:72 0
12 *73:49 *98:8 8.06804e-06
13 *73:49 *98:14 0
14 *73:49 *100:26 0.000400198
15 *13116:A *73:49 2.02872e-05
16 *13121:A1 *73:49 5.21024e-05
17 *13122:A *73:37 5.3304e-05
18 *13123:A2 *73:37 4.33627e-05
19 *13139:A2 *13149:A 5.05059e-05
20 *13139:A2 *73:12 4.00259e-06
21 *13142:A *73:12 0
22 *43:21 *73:49 5.65594e-05
23 *43:51 *73:49 0.00029459
24 *44:39 *73:37 0.000893367
25 *47:14 *73:49 1.22803e-05
26 *47:28 *73:49 2.04774e-05
27 *48:26 *73:37 1.13812e-05
28 *48:26 *73:49 0.00112213
29 *51:14 *73:49 0.000558863
30 *53:23 *73:37 0
31 *54:18 *73:37 0.000142678
32 *56:8 *73:49 0
33 *56:19 *73:37 5.3304e-05
34 *56:27 *73:37 4.68559e-05
35 *57:10 *73:49 7.6774e-06
36 *58:10 *73:49 0.000138747
37 *69:12 *13149:A 6.50067e-05
38 *72:12 *13149:A 0.000147134
39 *72:18 *13149:A 0.000189008
*RES
1 *13139:X *73:12 40.2164 
2 *73:12 *13149:A 45.1464 
3 *73:12 *73:37 49.6889 
4 *73:37 *73:49 44.0725 
5 *73:49 *13152:B 23 
*END

*D_NET *74 0.000689425
*CONN
*I *13141:A1 I *D sky130_fd_sc_hd__o21a_1
*I *13140:Y O *D sky130_fd_sc_hd__nor2_1
*CAP
1 *13141:A1 0
2 *13140:Y 0.000254577
3 *74:10 0.000254577
4 *74:10 *106:54 0
5 *74:10 *110:18 3.7122e-06
6 *74:10 *110:22 1.40958e-05
7 *74:10 *110:24 0.00010655
8 *74:10 *110:32 5.59116e-05
9 *74:10 *110:59 0
10 *13141:B1 *74:10 0
*RES
1 *13140:Y *74:10 42.4329 
2 *74:10 *13141:A1 38 
*END

*D_NET *75 0.00381883
*CONN
*I *13153:B I *D sky130_fd_sc_hd__nand2_1
*I *13142:B I *D sky130_fd_sc_hd__or2_1
*I *13143:B I *D sky130_fd_sc_hd__nand2_1
*I *13141:X O *D sky130_fd_sc_hd__o21a_1
*CAP
1 *13153:B 0
2 *13142:B 0
3 *13143:B 5.41266e-05
4 *13141:X 0.000350417
5 *75:40 0.000650709
6 *75:27 3.97912e-05
7 *75:21 0.00104336
8 *75:12 0.000406987
9 *75:10 0.000350417
10 *75:10 *110:59 1.32939e-05
11 *75:21 *77:10 1.08906e-05
12 *75:27 *110:72 8.82392e-05
13 *75:40 *13133:A 0
14 *75:40 *77:10 5.85822e-06
15 *75:40 *86:8 2.54046e-05
16 *75:40 *107:33 0
17 *13141:B1 *75:10 0
18 *13142:A *75:40 3.46673e-05
19 *13143:A *13143:B 1.18939e-05
20 *13143:A *75:21 1.94693e-05
21 *13155:B2 *75:40 0.000485452
22 *52:10 *75:10 0.00010018
23 *52:23 *75:10 0
24 *69:12 *75:10 2.29192e-05
25 *69:30 *75:40 3.83778e-05
26 *72:18 *75:27 2.53827e-05
27 *73:12 *75:21 4.09944e-05
*RES
1 *13141:X *75:10 43.1579 
2 *75:10 *75:12 15 
3 *75:12 *13143:B 24.2014 
4 *75:12 *75:21 4.43286 
5 *75:21 *75:27 31.2014 
6 *75:27 *13142:B 23 
7 *75:21 *75:40 40.0257 
8 *75:40 *13153:B 23 
*END

*D_NET *76 0.000385406
*CONN
*I *13148:A2 I *D sky130_fd_sc_hd__a31o_1
*I *13142:X O *D sky130_fd_sc_hd__or2_1
*CAP
1 *13148:A2 0
2 *13142:X 5.3611e-05
3 *76:8 5.3611e-05
4 *76:8 *77:10 0.000137976
5 *48:48 *76:8 0.000140208
*RES
1 *13142:X *76:8 39.9057 
2 *76:8 *13148:A2 38 
*END

*D_NET *77 0.00134846
*CONN
*I *13148:A3 I *D sky130_fd_sc_hd__a31o_1
*I *13143:Y O *D sky130_fd_sc_hd__nand2_1
*CAP
1 *13148:A3 0
2 *13143:Y 0.000422608
3 *77:10 0.000422608
4 *77:10 *13149:B 0.000137976
5 *13142:A *77:10 5.50106e-05
6 *13143:A *77:10 3.22879e-05
7 *73:12 *77:10 0.000123239
8 *75:21 *77:10 1.08906e-05
9 *75:40 *77:10 5.85822e-06
10 *76:8 *77:10 0.000137976
*RES
1 *13143:Y *77:10 44.815 
2 *77:10 *13148:A3 38 
*END

*D_NET *78 0.000742085
*CONN
*I *13145:B1 I *D sky130_fd_sc_hd__a31o_1
*I *13144:Y O *D sky130_fd_sc_hd__nor2_1
*CAP
1 *13145:B1 0
2 *13144:Y 0.000258437
3 *78:10 0.000258437
4 *78:10 *13129:B2 2.10502e-05
5 *78:10 *13145:A3 0.000162254
6 *78:10 *107:48 4.19071e-05
*RES
1 *13144:Y *78:10 42.3086 
2 *78:10 *13145:B1 38 
*END

*D_NET *79 0.000338507
*CONN
*I *13147:B1 I *D sky130_fd_sc_hd__a211o_1
*I *13145:X O *D sky130_fd_sc_hd__a31o_1
*CAP
1 *13147:B1 6.94253e-05
2 *13145:X 6.94253e-05
3 *13147:B1 *106:18 8.61313e-05
4 *13147:B1 *106:110 3.86731e-05
5 *39:18 *13147:B1 7.48516e-05
*RES
1 *13145:X *13147:B1 48.0714 
*END

*D_NET *80 0.000507322
*CONN
*I *13147:C1 I *D sky130_fd_sc_hd__a211o_1
*I *13146:X O *D sky130_fd_sc_hd__a2bb2o_1
*CAP
1 *13147:C1 0
2 *13146:X 0.000142322
3 *80:10 0.000142322
4 *13146:B2 *80:10 5.82853e-05
5 *36:12 *80:10 0.000164392
*RES
1 *13146:X *80:10 40.8793 
2 *80:10 *13147:C1 38 
*END

*D_NET *81 0.000710731
*CONN
*I *13148:B1 I *D sky130_fd_sc_hd__a31o_1
*I *13147:X O *D sky130_fd_sc_hd__a211o_1
*CAP
1 *13148:B1 0
2 *13147:X 0.000210849
3 *81:10 0.000210849
4 *81:10 *106:20 6.70361e-05
5 *36:12 *81:10 6.35028e-05
6 *48:48 *81:10 0.000158495
*RES
1 *13147:X *81:10 41.8321 
2 *81:10 *13148:B1 38 
*END

*D_NET *82 0.00899983
*CONN
*I *13152:C I *D sky130_fd_sc_hd__nor4_1
*I *13149:B I *D sky130_fd_sc_hd__or2_2
*I *13148:X O *D sky130_fd_sc_hd__a31o_1
*CAP
1 *13152:C 0
2 *13149:B 0.000355754
3 *13148:X 8.38732e-05
4 *82:33 0.0010528
5 *82:27 0.00172495
6 *82:8 0.00111178
7 *13149:B *83:10 2.76611e-06
8 *13149:B *110:72 0.000501872
9 *82:27 *92:65 0
10 *82:27 *92:87 0
11 *82:27 *110:72 0.000141552
12 *82:33 *13105:A 0.000321976
13 *82:33 *84:10 0.000139349
14 *82:33 *98:12 0
15 *82:33 *99:18 0.000148688
16 *82:33 *100:26 0.000302817
17 *82:33 *100:39 0.00153905
18 *82:33 *105:10 1.02387e-05
19 *13124:A1 *82:27 0
20 *13138:A2 *13149:B 0
21 *13146:B2 *82:8 9.41704e-05
22 *13149:A *13149:B 5.3304e-05
23 *25:30 *82:27 2.71291e-05
24 *25:43 *82:27 0.000108662
25 *28:18 *82:33 7.15126e-05
26 *29:23 *82:27 0
27 *48:48 *13149:B 4.63352e-05
28 *48:48 *82:27 0.000986925
29 *72:12 *13149:B 3.63499e-05
30 *77:10 *13149:B 0.000137976
*RES
1 *13148:X *82:8 39.0979 
2 *82:8 *13149:B 46.5757 
3 *82:8 *82:27 31.6957 
4 *82:27 *82:33 42.4257 
5 *82:33 *13152:C 38 
*END

*D_NET *83 0.0169904
*CONN
*I *13150:A I *D sky130_fd_sc_hd__buf_1
*I *13149:X O *D sky130_fd_sc_hd__or2_2
*CAP
1 *13150:A 0
2 *13149:X 0
3 *83:12 0.00699718
4 *83:10 0.00849384
5 *83:6 0.00149666
6 *83:10 *110:72 0
7 *13149:B *83:10 2.76611e-06
*RES
1 *13149:X *83:6 38 
2 *83:6 *83:10 29.3211 
3 *83:10 *83:12 137.574 
4 *83:12 *13150:A 38 
*END

*D_NET *84 0.000752566
*CONN
*I *13152:D I *D sky130_fd_sc_hd__nor4_1
*I *13151:X O *D sky130_fd_sc_hd__or2_1
*CAP
1 *13152:D 0
2 *13151:X 0.000203
3 *84:10 0.000203
4 *84:10 *98:12 0
5 *84:10 *99:18 3.53115e-05
6 *84:10 *105:10 0.000171906
7 *82:33 *84:10 0.000139349
*RES
1 *13151:X *84:10 42.3086 
2 *84:10 *13152:D 38 
*END

*D_NET *85 0.000774717
*CONN
*I *13155:A3 I *D sky130_fd_sc_hd__a32o_1
*I *13153:Y O *D sky130_fd_sc_hd__nand2_1
*CAP
1 *13155:A3 0
2 *13153:Y 0.000200187
3 *85:12 0.000200187
4 *85:12 *86:8 5.61311e-05
5 *85:12 *107:33 8.76088e-05
6 *13135:B *85:12 0.000230604
*RES
1 *13153:Y *85:12 43.2821 
2 *85:12 *13155:A3 38 
*END

*D_NET *86 0.000322087
*CONN
*I *13155:B1 I *D sky130_fd_sc_hd__a32o_1
*I *13154:X O *D sky130_fd_sc_hd__or2b_1
*CAP
1 *13155:B1 2.31525e-05
2 *13154:X 9.71233e-05
3 *86:8 0.000120276
4 *69:30 *86:8 0
5 *75:40 *86:8 2.54046e-05
6 *85:12 *86:8 5.61311e-05
*RES
1 *13154:X *86:8 40.2579 
2 *86:8 *13155:B1 38.2796 
*END

*D_NET *87 0.00221939
*CONN
*I *13156:C1 I *D sky130_fd_sc_hd__a221o_4
*I *13155:X O *D sky130_fd_sc_hd__a32o_1
*CAP
1 *13156:C1 0.000400532
2 *13155:X 0.000594257
3 *87:8 0.000994789
4 *13156:A2 *13156:C1 3.50862e-06
5 *68:25 *87:8 0.0002263
*RES
1 *13155:X *87:8 46.2443 
2 *87:8 *13156:C1 45.54 
*END

*D_NET *88 0.000330985
*CONN
*I *13159:B I *D sky130_fd_sc_hd__or2_1
*I *13158:Y O *D sky130_fd_sc_hd__a21boi_1
*CAP
1 *13159:B 0.000116531
2 *13158:Y 0.000116531
3 *13157:B *13159:B 1.76557e-05
4 *13158:A1 *13159:B 6.26126e-05
5 *26:74 *13159:B 1.76557e-05
*RES
1 *13158:Y *13159:B 48.0714 
*END

*D_NET *89 0.000547062
*CONN
*I *13160:A I *D sky130_fd_sc_hd__clkbuf_1
*I *13159:X O *D sky130_fd_sc_hd__or2_1
*CAP
1 *13160:A 0
2 *13159:X 0.000232633
3 *89:10 0.000232633
4 *89:10 *95:8 0
5 *13157:B *89:10 8.1796e-05
*RES
1 *13159:X *89:10 41.8321 
2 *89:10 *13160:A 38 
*END

*D_NET *90 0.00273378
*CONN
*I *13087:A I *D sky130_fd_sc_hd__clkbuf_4
*I *13103:A_N I *D sky130_fd_sc_hd__and3b_1
*I *13092:A I *D sky130_fd_sc_hd__nor3b_1
*I *13164:Q O *D sky130_fd_sc_hd__dfrtp_1
*CAP
1 *13087:A 0
2 *13103:A_N 0
3 *13092:A 2.86695e-05
4 *13164:Q 8.17907e-05
5 *90:22 0.000266372
6 *90:14 0.000794714
7 *90:8 0.000638802
8 *13092:A *13092:B 0.000187129
9 *13092:A *13100:C_N 5.29672e-05
10 *90:8 *112:27 0
11 *90:14 *13161:A 0.000187129
12 *90:22 *13092:B 0.000141052
13 *90:22 *13100:C_N 6.51763e-05
14 *90:22 *91:27 5.12254e-05
15 *90:22 *92:39 3.31127e-05
16 *90:22 *94:10 0
17 *13088:A *90:14 5.70419e-05
18 *13092:C_N *13092:A 5.67058e-05
19 *19:10 *90:14 5.50106e-05
20 *19:10 *90:22 0
21 *22:8 *90:8 0
22 *25:10 *90:22 0
23 *39:10 *90:22 3.68805e-05
*RES
1 *13164:Q *90:8 39.2014 
2 *90:8 *90:14 25.1707 
3 *90:14 *90:22 35.6136 
4 *90:22 *13092:A 25.0507 
5 *90:22 *13103:A_N 23 
6 *90:14 *13087:A 23 
*END

*D_NET *91 0.00317369
*CONN
*I *13103:B I *D sky130_fd_sc_hd__and3b_1
*I *13089:A I *D sky130_fd_sc_hd__buf_2
*I *13165:Q O *D sky130_fd_sc_hd__dfrtp_1
*CAP
1 *13103:B 0
2 *13089:A 0.000118567
3 *13165:Q 0.000195162
4 *91:27 0.000622201
5 *91:12 0.0010638
6 *91:8 0.000518198
7 *13089:A *92:16 0.000128401
8 *91:8 *93:12 0
9 *91:8 *112:27 0.000181432
10 *91:27 *13164:CLK 0.000103637
11 *91:27 *13165:CLK 0
12 *27:8 *13089:A 0.0001042
13 *27:10 *91:27 8.4047e-05
14 *39:10 *91:27 2.81406e-06
15 *90:22 *91:27 5.12254e-05
*RES
1 *13165:Q *91:8 42.7229 
2 *91:8 *91:12 20.8621 
3 *91:12 *13089:A 26.48 
4 *91:12 *91:27 39.0729 
5 *91:27 *13103:B 23 
*END

*D_NET *92 0.0111916
*CONN
*I *13090:C I *D sky130_fd_sc_hd__and3_2
*I *13108:C I *D sky130_fd_sc_hd__nor3_2
*I *13158:B1_N I *D sky130_fd_sc_hd__a21boi_1
*I *13095:A_N I *D sky130_fd_sc_hd__and3b_1
*I *13096:A2 I *D sky130_fd_sc_hd__a211oi_1
*I *13091:B I *D sky130_fd_sc_hd__nand3b_2
*I *13112:B I *D sky130_fd_sc_hd__or3b_2
*I *13103:C I *D sky130_fd_sc_hd__and3b_1
*I *13100:C_N I *D sky130_fd_sc_hd__or3b_1
*I *13092:B I *D sky130_fd_sc_hd__nor3b_1
*I *13166:Q O *D sky130_fd_sc_hd__dfrtp_4
*CAP
1 *13090:C 0
2 *13108:C 3.05557e-05
3 *13158:B1_N 0
4 *13095:A_N 1.50079e-05
5 *13096:A2 0.000298918
6 *13091:B 2.92288e-05
7 *13112:B 0.00033364
8 *13103:C 0
9 *13100:C_N 0.000581426
10 *13092:B 0.000251213
11 *13166:Q 0.000199161
12 *92:100 0.000180347
13 *92:87 0.000716839
14 *92:65 0.000399515
15 *92:63 0.00051784
16 *92:59 0.000608725
17 *92:39 0.00061942
18 *92:20 0.000483498
19 *92:16 0.00142735
20 *92:10 0.00108267
21 *13112:B *13168:A 8.72173e-05
22 *92:10 *108:18 3.61695e-05
23 *92:10 *108:24 0.000313249
24 *92:16 *13165:CLK 0
25 *92:16 *93:12 0
26 *92:16 *100:45 0.000225265
27 *92:20 *13165:CLK 0
28 *92:39 *13165:CLK 0
29 *92:65 *13168:A 5.94125e-05
30 *92:87 *13168:A 0.000114083
31 *92:87 *93:16 1.38978e-05
32 *13089:A *92:16 0.000128401
33 *13092:A *13092:B 0.000187129
34 *13092:A *13100:C_N 5.29672e-05
35 *13092:C_N *13092:B 6.09892e-05
36 *13092:C_N *13100:C_N 8.09197e-05
37 *13108:B *13108:C 2.02517e-05
38 *13108:B *92:63 9.84851e-05
39 *13157:A *92:20 1.83564e-05
40 *13158:A1 *13095:A_N 5.50049e-05
41 *13179:A *13100:C_N 1.14154e-05
42 *20:8 *92:16 0
43 *24:8 *92:16 0.000114083
44 *25:10 *13092:B 2.24608e-05
45 *25:10 *92:20 0.000103019
46 *25:10 *92:39 3.41052e-05
47 *25:20 *13108:C 1.14154e-05
48 *25:20 *92:59 0.000214935
49 *25:20 *92:63 3.53115e-05
50 *25:22 *13091:B 5.3304e-05
51 *25:22 *13112:B 2.02872e-05
52 *25:24 *13091:B 5.50049e-05
53 *25:24 *13112:B 2.02872e-05
54 *25:85 *13112:B 6.25829e-05
55 *26:8 *92:16 6.46633e-05
56 *26:8 *92:59 2.45549e-06
57 *26:12 *92:59 7.18992e-06
58 *26:42 *13091:B 9.84794e-05
59 *26:42 *92:63 0.000137651
60 *26:74 *13095:A_N 5.50049e-05
61 *27:8 *92:16 7.9567e-06
62 *28:10 *13112:B 0.000314157
63 *29:6 *13100:C_N 5.29672e-05
64 *29:8 *13100:C_N 0.000116141
65 *32:78 *92:100 1.02561e-05
66 *48:48 *92:65 0
67 *82:27 *92:65 0
68 *82:27 *92:87 0
69 *90:22 *13092:B 0.000141052
70 *90:22 *13100:C_N 6.51763e-05
71 *90:22 *92:39 3.31127e-05
*RES
1 *13166:Q *92:10 42.4536 
2 *92:10 *92:16 30.8671 
3 *92:16 *92:20 18.4904 
4 *92:20 *13092:B 43.3961 
5 *92:20 *92:39 16.0254 
6 *92:39 *13100:C_N 32.7357 
7 *92:39 *13103:C 23 
8 *92:16 *92:59 5.38571 
9 *92:59 *92:63 18.48 
10 *92:63 *92:65 0.849286 
11 *92:65 *13112:B 43.6343 
12 *92:65 *13091:B 39.0979 
13 *92:63 *92:87 5.075 
14 *92:87 *13096:A2 43.3857 
15 *92:87 *92:100 17.61 
16 *92:100 *13095:A_N 23.6214 
17 *92:100 *13158:B1_N 23 
18 *92:59 *13108:C 23.8493 
19 *92:16 *13090:C 23 
*END

*D_NET *93 0.00417154
*CONN
*I *13169:A I *D sky130_fd_sc_hd__clkbuf_16
*I *13168:A I *D sky130_fd_sc_hd__clkbuf_16
*I *13167:X O *D sky130_fd_sc_hd__clkbuf_16
*CAP
1 *13169:A 0
2 *13168:A 0.00044248
3 *13167:X 0.0011001
4 *93:16 0.000453055
5 *93:12 0.00111068
6 *13168:A *13145:A3 8.6169e-05
7 *13168:A *104:8 0.000289034
8 *93:12 *100:39 0.000113547
9 *13112:B *13168:A 8.72173e-05
10 *17:15 *93:12 0
11 *25:85 *13168:A 7.45175e-05
12 *26:16 *13168:A 4.08641e-05
13 *26:38 *13168:A 5.30518e-05
14 *28:34 *13168:A 0.000133429
15 *44:8 *13168:A 0
16 *91:8 *93:12 0
17 *92:16 *93:12 0
18 *92:65 *13168:A 5.94125e-05
19 *92:87 *13168:A 0.000114083
20 *92:87 *93:16 1.38978e-05
*RES
1 *13167:X *93:12 49.6487 
2 *93:12 *93:16 8.32107 
3 *93:16 *13168:A 49.0614 
4 *93:16 *13169:A 38 
*END

*D_NET *94 0.00300164
*CONN
*I *13165:CLK I *D sky130_fd_sc_hd__dfrtp_1
*I *13164:CLK I *D sky130_fd_sc_hd__dfrtp_1
*I *13168:X O *D sky130_fd_sc_hd__clkbuf_16
*CAP
1 *13165:CLK 0.000489599
2 *13164:CLK 7.75188e-05
3 *13168:X 0.000532878
4 *94:10 0.0011
5 *13165:CLK *100:45 0
6 *13157:A *13165:CLK 0
7 *17:15 *13165:CLK 0
8 *19:10 *94:10 0.000114083
9 *27:10 *13165:CLK 0
10 *27:10 *94:10 0
11 *27:25 *94:10 0.000442771
12 *39:10 *13164:CLK 3.71251e-05
13 *39:10 *94:10 0.00010403
14 *90:22 *94:10 0
15 *91:27 *13164:CLK 0.000103637
16 *91:27 *13165:CLK 0
17 *92:16 *13165:CLK 0
18 *92:20 *13165:CLK 0
19 *92:39 *13165:CLK 0
*RES
1 *13168:X *94:10 47.9843 
2 *94:10 *13164:CLK 40.0507 
3 *94:10 *13165:CLK 46.2443 
*END

*D_NET *95 0.00118137
*CONN
*I *13166:CLK I *D sky130_fd_sc_hd__dfrtp_4
*I *13169:X O *D sky130_fd_sc_hd__clkbuf_16
*CAP
1 *13166:CLK 1.97605e-05
2 *13169:X 0.000353599
3 *95:8 0.00037336
4 *13166:CLK *108:24 5.50106e-05
5 *13157:A *95:8 0.000360161
6 *17:15 *95:8 0
7 *21:8 *13166:CLK 1.94812e-05
8 *32:78 *95:8 0
9 *89:10 *95:8 0
*RES
1 *13169:X *95:8 45.54 
2 *95:8 *13166:CLK 38.6214 
*END

*D_NET *96 0.0420408
*CONN
*I *13156:A1 I *D sky130_fd_sc_hd__a221o_4
*I *13097:A2 I *D sky130_fd_sc_hd__o22a_1
*I *13093:B I *D sky130_fd_sc_hd__and2_1
*I *13111:A_N I *D sky130_fd_sc_hd__and2b_1
*I *13094:A1_N I *D sky130_fd_sc_hd__a2bb2o_1
*I *13104:B2 I *D sky130_fd_sc_hd__a22o_1
*I *13170:X O *D sky130_fd_sc_hd__clkbuf_4
*CAP
1 *13156:A1 2.83992e-05
2 *13097:A2 1.42646e-05
3 *13093:B 0
4 *13111:A_N 6.60786e-05
5 *13094:A1_N 0
6 *13104:B2 0
7 *13170:X 4.61509e-05
8 *96:79 0.000110654
9 *96:66 0.000260701
10 *96:64 0.00054019
11 *96:47 0.00063143
12 *96:34 0.00188293
13 *96:28 0.00200033
14 *96:20 0.00146972
15 *96:16 0.0070677
16 *96:14 0.00597064
17 *96:12 0.00413289
18 *96:10 0.00409551
19 *96:8 4.61509e-05
20 *13097:A2 *13111:B 5.50106e-05
21 *13111:A_N *13111:B 0.000139352
22 *96:8 *106:8 3.88629e-05
23 *96:8 *112:14 8.57485e-05
24 *96:16 *97:8 0.00202444
25 *96:16 *97:10 0.00680457
26 *96:20 *97:8 0.00136314
27 *96:28 *13156:B2 0.000281712
28 *96:64 *108:30 1.6279e-05
29 *96:66 *13111:B 0.000270682
30 *13097:B1 *96:66 5.67058e-05
31 *13097:B2 *13097:A2 2.32101e-05
32 *13097:B2 *96:66 2.93747e-05
33 *13124:A1 *96:64 4.6318e-06
34 *13156:B1 *96:28 0.000100486
35 *17:5 *96:79 6.9739e-05
36 *25:10 *96:34 6.17437e-06
37 *26:50 *96:64 0
38 *26:65 *96:64 0
39 *27:25 *96:20 1.24376e-05
40 *27:25 *96:28 0.00065935
41 *27:35 *96:34 8.98343e-05
42 *27:39 *96:34 1.02387e-05
43 *27:39 *96:47 1.84226e-05
44 *28:10 *96:64 5.50049e-05
45 *28:18 *96:64 0.000156943
46 *30:8 *96:64 0
47 *30:8 *96:79 6.68793e-05
48 *30:36 *96:64 0.000323111
49 *32:6 *96:66 1.22822e-05
50 *32:14 *96:47 6.7177e-06
51 *32:14 *96:64 0.000122968
52 *32:24 *96:34 0.000107735
53 *32:24 *96:47 5.93381e-05
54 *32:48 *96:47 0.000140259
55 *33:8 *96:64 4.2361e-05
56 *39:38 *96:34 0.000246729
57 *40:10 *96:47 6.68793e-05
58 *44:8 *96:28 0
59 *48:18 *96:47 9.17484e-05
60 *48:18 *96:64 1.76557e-05
*RES
1 *13170:X *96:8 39.2014 
2 *96:8 *96:10 15 
3 *96:10 *96:12 54.2196 
4 *96:12 *96:14 0.849286 
5 *96:14 *96:16 171.659 
6 *96:16 *96:20 29.4661 
7 *96:20 *96:28 39.1971 
8 *96:28 *96:34 38.8214 
9 *96:34 *13104:B2 38 
10 *96:34 *96:47 20.0129 
11 *96:47 *13094:A1_N 23 
12 *96:47 *96:64 40.8129 
13 *96:64 *96:66 3.00357 
14 *96:66 *13111:A_N 24.5743 
15 *96:66 *96:79 32.9621 
16 *96:79 *13093:B 23 
17 *96:64 *13097:A2 23.6214 
18 *96:20 *13156:A1 23.4971 
*END

*D_NET *97 0.0492131
*CONN
*I *13180:A I *D sky130_fd_sc_hd__clkbuf_4
*I *13156:X O *D sky130_fd_sc_hd__a221o_4
*CAP
1 *13180:A 0
2 *13156:X 0
3 *97:14 0.00951855
4 *97:12 0.00951855
5 *97:10 0.00797733
6 *97:8 0.00999191
7 *97:4 0.00201459
8 *96:16 *97:8 0.00202444
9 *96:16 *97:10 0.00680457
10 *96:20 *97:8 0.00136314
*RES
1 *13156:X *97:4 23 
2 *97:4 *97:8 48.0468 
3 *97:8 *97:10 129.972 
4 *97:10 *97:12 15 
5 *97:12 *97:14 186.429 
6 *97:14 *13180:A 38 
*END

*D_NET *98 0.0220879
*CONN
*I *13151:A I *D sky130_fd_sc_hd__or2_1
*I *13181:A I *D sky130_fd_sc_hd__clkbuf_4
*I *13098:X O *D sky130_fd_sc_hd__a211o_2
*CAP
1 *13151:A 0
2 *13181:A 0
3 *13098:X 0.00091242
4 *98:18 0.00399156
5 *98:16 0.00399156
6 *98:14 0.00532268
7 *98:12 0.00551461
8 *98:8 0.00110435
9 *98:8 *100:26 6.70749e-05
10 *98:12 *99:8 8.16459e-05
11 *98:12 *100:26 0
12 *98:12 *105:10 0
13 *98:14 *13107:B 0
14 *98:14 *105:10 0
15 *98:14 *109:14 0
16 *13109:A2 *98:8 1.14762e-05
17 *13110:A1 *98:8 4.66047e-05
18 *13110:B1 *98:8 0.000187129
19 *13116:A *98:8 0.000103637
20 *30:16 *98:8 0.000297049
21 *43:21 *98:14 0
22 *47:28 *98:14 0.000150451
23 *51:14 *98:12 0
24 *51:14 *98:14 0
25 *56:8 *98:14 0.000297631
26 *56:27 *98:14 0
27 *73:49 *98:8 8.06804e-06
28 *73:49 *98:14 0
29 *82:33 *98:12 0
30 *84:10 *98:12 0
*RES
1 *13098:X *98:8 37.8107 
2 *98:8 *98:12 18.6664 
3 *98:12 *98:14 107.196 
4 *98:14 *98:16 15 
5 *98:16 *98:18 67.7979 
6 *98:18 *13181:A 23 
7 *98:12 *13151:A 38 
*END

*D_NET *99 0.00822766
*CONN
*I *13151:B I *D sky130_fd_sc_hd__or2_1
*I *13182:A I *D sky130_fd_sc_hd__clkbuf_4
*I *13116:X O *D sky130_fd_sc_hd__buf_1
*CAP
1 *13151:B 0
2 *13182:A 0
3 *13116:X 0.000107776
4 *99:20 0.00297067
5 *99:18 0.00387323
6 *99:10 0.000902565
7 *99:8 0.000107776
8 *99:8 *100:26 0
9 *51:14 *99:8 0
10 *82:33 *99:18 0.000148688
11 *84:10 *99:18 3.53115e-05
12 *98:12 *99:8 8.16459e-05
*RES
1 *13116:X *99:8 40.2579 
2 *99:8 *99:10 15 
3 *99:10 *99:18 47.0479 
4 *99:18 *99:20 54.4579 
5 *99:20 *13182:A 23 
6 *99:10 *13151:B 23 
*END

*D_NET *100 0.0680932
*CONN
*I *13183:A I *D sky130_fd_sc_hd__clkbuf_4
*I *13152:A I *D sky130_fd_sc_hd__nor4_1
*I *13132:X O *D sky130_fd_sc_hd__a21o_4
*CAP
1 *13183:A 0
2 *13152:A 0
3 *13132:X 6.7524e-05
4 *100:51 0.00748777
5 *100:49 0.00748777
6 *100:47 0.0191654
7 *100:45 0.0192805
8 *100:39 0.00239548
9 *100:26 0.000454852
10 *100:16 0.0033346
11 *100:8 0.000666845
12 *100:47 *13162:A 2.32101e-05
13 *100:51 *106:8 0.00351278
14 *13116:A *100:26 0.000141954
15 *13165:CLK *100:45 0
16 *13165:RESET_B *100:47 0.000222287
17 *3:13 *100:51 0
18 *17:15 *100:45 0
19 *43:51 *100:16 0
20 *44:56 *100:16 0.000504652
21 *46:12 *100:16 0.000254433
22 *48:26 *100:16 0
23 *50:10 *100:16 0.000161121
24 *51:14 *100:26 0.000136486
25 *66:6 *100:8 0.000147656
26 *73:49 *100:26 0.000400198
27 *82:33 *100:26 0.000302817
28 *82:33 *100:39 0.00153905
29 *92:16 *100:45 0.000225265
30 *93:12 *100:39 0.000113547
31 *98:8 *100:26 6.70749e-05
32 *98:12 *100:26 0
33 *99:8 *100:26 0
*RES
1 *13132:X *100:8 39.5743 
2 *100:8 *100:16 30.3493 
3 *100:16 *100:26 39.8186 
4 *100:26 *13152:A 23 
5 *100:16 *100:39 37.0164 
6 *100:39 *100:45 32.9621 
7 *100:45 *100:47 255.511 
8 *100:47 *100:49 15 
9 *100:49 *100:51 170.582 
10 *100:51 *13183:A 38 
*END

*D_NET *101 0.0123637
*CONN
*I *13184:A I *D sky130_fd_sc_hd__clkbuf_4
*I *13150:X O *D sky130_fd_sc_hd__buf_1
*CAP
1 *13184:A 0
2 *13150:X 0
3 *101:16 0.000565067
4 *101:6 0.00618184
5 *101:4 0.00561677
*RES
1 *13150:X *101:4 23 
2 *101:4 *101:6 74.9443 
3 *101:6 *101:16 40.1707 
4 *101:16 *13184:A 23 
*END

*D_NET *102 0.00605072
*CONN
*I *13186:A I *D sky130_fd_sc_hd__buf_1
*I *13152:Y O *D sky130_fd_sc_hd__nor4_1
*CAP
1 *13186:A 0.000581032
2 *13152:Y 0.000603287
3 *102:10 0.00242207
4 *102:8 0.00244433
*RES
1 *13152:Y *102:8 45.7679 
2 *102:8 *102:10 35.7114 
3 *102:10 *13186:A 48.6264 
*END

*D_NET *103 0.0128784
*CONN
*I *13185:A I *D sky130_fd_sc_hd__clkbuf_4
*I *13186:X O *D sky130_fd_sc_hd__buf_1
*CAP
1 *13185:A 0
2 *13186:X 0.0012948
3 *103:14 0.0017393
4 *103:10 0.00514442
5 *103:8 0.00340512
6 *103:6 0.0012948
*RES
1 *13186:X *103:6 40.2964 
2 *103:6 *103:8 15 
3 *103:8 *103:10 66.3479 
4 *103:10 *103:14 44.2071 
5 *103:14 *13185:A 23 
*END

*D_NET *104 0.00280884
*CONN
*I *13129:A3 I *D sky130_fd_sc_hd__a32o_1
*I *13145:A3 I *D sky130_fd_sc_hd__a31o_1
*I *13179:X O *D sky130_fd_sc_hd__buf_1
*CAP
1 *13129:A3 0.000436212
2 *13145:A3 0.000280372
3 *13179:X 0.000165822
4 *104:8 0.000882407
5 *13129:A3 *110:72 4.23566e-05
6 *13128:B *13129:A3 1.71773e-05
7 *13129:B1 *13129:A3 4.13074e-05
8 *13168:A *13145:A3 8.6169e-05
9 *13168:A *104:8 0.000289034
10 *27:25 *13129:A3 0.000381743
11 *27:35 *13129:A3 2.39868e-05
12 *44:8 *13145:A3 0
13 *44:8 *104:8 0
14 *78:10 *13145:A3 0.000162254
*RES
1 *13179:X *104:8 42.0186 
2 *104:8 *13145:A3 43.6136 
3 *104:8 *13129:A3 45.3587 
*END

*D_NET *105 0.0342855
*CONN
*I *13107:A I *D sky130_fd_sc_hd__xor2_2
*I *13098:A1 I *D sky130_fd_sc_hd__a211o_2
*I *13105:A I *D sky130_fd_sc_hd__nor2_1
*I *13102:A1 I *D sky130_fd_sc_hd__o22a_1
*I *13099:A I *D sky130_fd_sc_hd__and2_1
*I *13130:A1 I *D sky130_fd_sc_hd__a211o_1
*I *13120:B_N I *D sky130_fd_sc_hd__or2b_1
*I *13171:X O *D sky130_fd_sc_hd__buf_4
*CAP
1 *13107:A 0
2 *13098:A1 0.000406051
3 *13105:A 0.000262988
4 *13102:A1 3.92716e-05
5 *13099:A 2.79296e-05
6 *13130:A1 0.000526338
7 *13120:B_N 0.000254913
8 *13171:X 0
9 *105:68 0.000945101
10 *105:57 0.000351401
11 *105:33 0.000645395
12 *105:31 0.00113448
13 *105:25 0.00100728
14 *105:10 0.00940319
15 *105:8 0.00914827
16 *105:6 0.0038159
17 *105:4 0.0038159
18 *13099:A *109:27 5.50049e-05
19 *13120:B_N *13107:B 4.48568e-05
20 *105:10 *13107:B 4.21594e-06
21 *105:33 *109:33 0.000141869
22 *105:57 *109:33 5.94125e-05
23 *105:68 *109:33 3.70187e-05
24 *13098:A2 *13098:A1 0
25 *13098:A2 *105:68 0
26 *13102:B2 *13102:A1 4.96717e-05
27 *13124:A2 *13102:A1 9.5877e-05
28 *13124:A2 *105:31 0.000514788
29 *13130:B1 *13130:A1 5.55743e-06
30 *30:16 *13098:A1 0.000455459
31 *30:32 *13098:A1 3.91386e-05
32 *32:48 *105:57 6.07611e-06
33 *32:48 *105:68 9.03054e-05
34 *36:43 *13130:A1 6.03737e-05
35 *36:43 *105:33 7.76364e-06
36 *36:43 *105:68 6.43253e-05
37 *39:30 *13130:A1 3.23299e-05
38 *43:39 *105:31 0.000223698
39 *44:56 *13098:A1 0
40 *44:56 *13130:A1 0
41 *44:56 *105:33 0
42 *44:56 *105:57 0
43 *44:56 *105:68 0
44 *64:8 *13130:A1 9.21212e-06
45 *82:33 *13105:A 0.000321976
46 *82:33 *105:10 1.02387e-05
47 *84:10 *105:10 0.000171906
48 *98:12 *105:10 0
49 *98:14 *105:10 0
*RES
1 *13171:X *105:4 23 
2 *105:4 *105:6 64.9393 
3 *105:6 *105:8 15 
4 *105:8 *105:10 180.09 
5 *105:10 *13120:B_N 41.8529 
6 *105:10 *105:25 15 
7 *105:25 *105:31 29.3343 
8 *105:31 *105:33 2.25786 
9 *105:33 *13130:A1 47.4457 
10 *105:33 *13099:A 38.6214 
11 *105:31 *105:57 0.849286 
12 *105:57 *13102:A1 39.0979 
13 *105:57 *105:68 5.77929 
14 *105:68 *13105:A 44.3386 
15 *105:68 *13098:A1 46.99 
16 *105:25 *13107:A 23 
*END

*D_NET *106 0.0543169
*CONN
*I *13147:A1 I *D sky130_fd_sc_hd__a211o_1
*I *13129:A1 I *D sky130_fd_sc_hd__a32o_1
*I *13128:A I *D sky130_fd_sc_hd__nor2_1
*I *13106:A1 I *D sky130_fd_sc_hd__a211o_1
*I *13118:A I *D sky130_fd_sc_hd__or2_1
*I *13117:A I *D sky130_fd_sc_hd__nand2_1
*I *13140:A I *D sky130_fd_sc_hd__nor2_1
*I *13136:B I *D sky130_fd_sc_hd__and2b_1
*I *13172:X O *D sky130_fd_sc_hd__buf_4
*CAP
1 *13147:A1 0
2 *13129:A1 0
3 *13128:A 0
4 *13106:A1 0
5 *13118:A 0
6 *13117:A 0
7 *13140:A 0
8 *13136:B 0.000233873
9 *13172:X 0
10 *106:118 0.00013887
11 *106:110 0.000160774
12 *106:101 0.000254491
13 *106:88 0.000525872
14 *106:54 0.000376406
15 *106:50 0.000513741
16 *106:36 0.000856061
17 *106:24 0.00136458
18 *106:20 0.000831912
19 *106:18 0.00371512
20 *106:12 0.0164811
21 *106:10 0.0130114
22 *106:8 0.00418161
23 *106:6 0.00418161
24 *13136:B *110:18 4.17736e-05
25 *13136:B *110:22 5.67058e-05
26 *13136:B *110:24 9.14823e-05
27 *13136:B *110:32 8.1796e-05
28 *13136:B *110:59 3.70187e-05
29 *106:8 *112:14 0.000104849
30 *106:18 *111:49 0.000495011
31 *106:50 *110:32 8.05936e-05
32 *106:50 *110:59 5.90075e-05
33 *106:54 *110:59 0.000129504
34 *13098:A2 *106:88 2.68751e-05
35 *13101:A *106:88 6.7177e-06
36 *13119:B *106:36 0
37 *13128:B *106:101 0.000145163
38 *13131:A2 *106:36 6.17437e-06
39 *13131:C1 *106:24 2.95526e-05
40 *13131:C1 *106:36 0.000101506
41 *13141:A2 *106:50 4.08537e-05
42 *13141:B1 *106:50 5.50049e-05
43 *13141:B1 *106:54 4.6318e-06
44 *13147:A2 *106:110 5.55743e-06
45 *13147:B1 *106:18 8.61313e-05
46 *13147:B1 *106:110 3.86731e-05
47 *3:13 *106:8 0
48 *27:39 *106:88 0.000342134
49 *35:10 *106:88 3.98859e-05
50 *36:12 *106:118 7.42423e-05
51 *36:29 *106:88 0.000104133
52 *39:18 *106:18 0.000156053
53 *39:18 *106:20 1.73995e-05
54 *39:18 *106:110 5.58003e-05
55 *39:30 *106:20 0.000215492
56 *39:30 *106:24 9.6831e-05
57 *39:38 *106:88 0.000100876
58 *44:39 *106:36 0.000223795
59 *44:56 *106:36 1.21972e-05
60 *48:48 *106:118 7.42327e-05
61 *52:10 *106:50 7.68515e-05
62 *54:10 *106:36 8.22171e-05
63 *59:12 *106:36 0
64 *59:12 *106:50 5.09885e-05
65 *59:12 *106:88 0
66 *60:10 *106:36 0.000327427
67 *60:10 *106:50 7.75329e-06
68 *65:8 *106:88 8.78864e-05
69 *74:10 *106:54 0
70 *81:10 *106:20 6.70361e-05
71 *96:8 *106:8 3.88629e-05
72 *100:51 *106:8 0.00351278
*RES
1 *13172:X *106:6 38 
2 *106:6 *106:8 106.492 
3 *106:8 *106:10 15 
4 *106:10 *106:12 226.687 
5 *106:12 *106:18 48.9996 
6 *106:18 *106:20 5.38571 
7 *106:20 *106:24 6.83571 
8 *106:24 *106:36 39.9221 
9 *106:36 *106:50 37.5814 
10 *106:50 *106:54 17.61 
11 *106:54 *13136:B 43.2821 
12 *106:54 *13140:A 38 
13 *106:50 *13117:A 23 
14 *106:36 *13118:A 23 
15 *106:24 *106:88 42.1179 
16 *106:88 *13106:A1 23 
17 *106:20 *106:101 34.5364 
18 *106:101 *13128:A 23 
19 *106:18 *106:110 1.11857 
20 *106:110 *106:118 32.8793 
21 *106:118 *13129:A1 23 
22 *106:110 *13147:A1 23 
*END

*D_NET *107 0.0558835
*CONN
*I *13134:A I *D sky130_fd_sc_hd__or2_1
*I *13154:B_N I *D sky130_fd_sc_hd__or2b_1
*I *13156:B2 I *D sky130_fd_sc_hd__a221o_4
*I *13144:A I *D sky130_fd_sc_hd__nor2_1
*I *13129:B2 I *D sky130_fd_sc_hd__a32o_1
*I *13145:A1 I *D sky130_fd_sc_hd__a31o_1
*I *13133:A I *D sky130_fd_sc_hd__nand2_1
*I *13173:X O *D sky130_fd_sc_hd__buf_4
*CAP
1 *13134:A 0
2 *13154:B_N 0
3 *13156:B2 0.000199753
4 *13144:A 1.39354e-05
5 *13129:B2 7.47796e-05
6 *13145:A1 9.70945e-05
7 *13133:A 0.000253392
8 *13173:X 0
9 *107:48 0.00027832
10 *107:46 0.000521603
11 *107:33 0.000518696
12 *107:16 0.000542747
13 *107:14 7.47796e-05
14 *107:12 0.0142994
15 *107:10 0.0142246
16 *107:8 0.00699298
17 *107:6 0.00699298
18 *13133:A *13133:B 0.000187129
19 *13133:A *110:12 2.65879e-05
20 *13133:A *111:21 0.000116314
21 *13133:A *111:30 2.55642e-05
22 *13145:A1 *111:49 0.000224921
23 *107:8 *112:8 0.00695428
24 *107:8 *112:14 0.000272456
25 *107:33 *111:30 8.72173e-05
26 *107:33 *111:49 0.00054929
27 *13128:B *13129:B2 5.40522e-05
28 *13128:B *13144:A 5.55743e-06
29 *13129:B1 *13129:B2 2.26338e-05
30 *13135:B *107:12 0.00010018
31 *13135:B *107:14 0.000139352
32 *13155:A1 *107:33 7.83902e-05
33 *18:13 *107:8 0
34 *27:25 *13129:B2 0.000226306
35 *27:25 *13156:B2 0.000202834
36 *27:25 *107:48 0.000481937
37 *39:18 *13145:A1 0.000403155
38 *44:8 *107:33 0.000102198
39 *44:8 *107:46 9.91145e-05
40 *67:8 *13133:A 0
41 *68:33 *107:33 6.7177e-06
42 *69:30 *107:33 0
43 *75:40 *13133:A 0
44 *75:40 *107:33 0
45 *78:10 *13129:B2 2.10502e-05
46 *78:10 *107:48 4.19071e-05
47 *85:12 *107:33 8.76088e-05
48 *96:28 *13156:B2 0.000281712
*RES
1 *13173:X *107:6 38 
2 *107:6 *107:8 168.821 
3 *107:8 *107:10 15 
4 *107:10 *107:12 263.134 
5 *107:12 *107:14 1.57429 
6 *107:14 *107:16 15 
7 *107:16 *13133:A 43.9036 
8 *107:16 *107:33 8.94857 
9 *107:33 *13145:A1 42.4329 
10 *107:33 *107:46 17.9621 
11 *107:46 *107:48 5.38571 
12 *107:48 *13129:B2 26.0243 
13 *107:48 *13144:A 23.4971 
14 *107:46 *13156:B2 29.0279 
15 *107:14 *13154:B_N 23 
16 *107:12 *13134:A 23 
*END

*D_NET *108 0.0320101
*CONN
*I *13093:A I *D sky130_fd_sc_hd__and2_1
*I *13111:B I *D sky130_fd_sc_hd__and2b_1
*I *13097:A1 I *D sky130_fd_sc_hd__o22a_1
*I *13174:X O *D sky130_fd_sc_hd__buf_2
*CAP
1 *13093:A 0.000198491
2 *13111:B 0.0003855
3 *13097:A1 0
4 *13174:X 0
5 *108:30 0.000600273
6 *108:24 0.00180032
7 *108:18 0.00395281
8 *108:14 0.00485303
9 *108:8 0.0106797
10 *108:6 0.00839241
11 *13097:A2 *13111:B 5.50106e-05
12 *13097:B2 *13111:B 2.16583e-05
13 *13111:A_N *13111:B 0.000139352
14 *13166:CLK *108:24 5.50106e-05
15 *17:5 *108:30 0
16 *17:15 *108:24 0.000112274
17 *21:8 *108:24 0.000127879
18 *26:65 *108:30 0
19 *92:10 *108:18 3.61695e-05
20 *92:10 *108:24 0.000313249
21 *96:64 *108:30 1.6279e-05
22 *96:66 *13111:B 0.000270682
*RES
1 *13174:X *108:6 38 
2 *108:6 *108:8 164.596 
3 *108:8 *108:14 45.2946 
4 *108:14 *108:18 48.0468 
5 *108:18 *108:24 26.5143 
6 *108:24 *108:30 32.61 
7 *108:30 *13097:A1 23 
8 *108:30 *13111:B 30.6643 
9 *108:24 *13093:A 26.5007 
*END

*D_NET *109 0.0310378
*CONN
*I *13107:B I *D sky130_fd_sc_hd__xor2_2
*I *13099:B I *D sky130_fd_sc_hd__and2_1
*I *13102:A2 I *D sky130_fd_sc_hd__o22a_1
*I *13120:A I *D sky130_fd_sc_hd__or2b_1
*I *13175:X O *D sky130_fd_sc_hd__clkbuf_4
*CAP
1 *13107:B 0.000213679
2 *13099:B 0
3 *13102:A2 0
4 *13120:A 0
5 *13175:X 0.000649954
6 *109:33 0.000101363
7 *109:27 0.000965569
8 *109:16 0.000864206
9 *109:14 0.00954886
10 *109:12 0.00933518
11 *109:10 0.00410075
12 *109:8 0.0047507
13 *13099:A *109:27 5.50049e-05
14 *13120:B_N *13107:B 4.48568e-05
15 *13121:B1 *109:27 5.50106e-05
16 *36:43 *109:33 0.000110116
17 *98:14 *13107:B 0
18 *98:14 *109:14 0
19 *105:10 *13107:B 4.21594e-06
20 *105:33 *109:33 0.000141869
21 *105:57 *109:33 5.94125e-05
22 *105:68 *109:33 3.70187e-05
*RES
1 *13175:X *109:8 34.3618 
2 *109:8 *109:10 54.6961 
3 *109:10 *109:12 15 
4 *109:12 *109:14 183.259 
5 *109:14 *109:16 15 
6 *109:16 *13120:A 23 
7 *109:16 *109:27 13.8786 
8 *109:27 *109:33 32.9621 
9 *109:33 *13102:A2 23 
10 *109:27 *13099:B 23 
11 *109:14 *13107:B 18.6664 
*END

*D_NET *110 0.0510476
*CONN
*I *13129:A2 I *D sky130_fd_sc_hd__a32o_1
*I *13117:B I *D sky130_fd_sc_hd__nand2_1
*I *13140:B I *D sky130_fd_sc_hd__nor2_1
*I *13136:A_N I *D sky130_fd_sc_hd__and2b_1
*I *13118:B I *D sky130_fd_sc_hd__or2_1
*I *13176:X O *D sky130_fd_sc_hd__clkbuf_4
*CAP
1 *13129:A2 0
2 *13117:B 0
3 *13140:B 0
4 *13136:A_N 0
5 *13118:B 0
6 *13176:X 0
7 *110:72 0.000781268
8 *110:59 0.000233044
9 *110:32 0.000276217
10 *110:24 0.000306922
11 *110:22 6.92006e-05
12 *110:18 0.000804576
13 *110:12 0.0155386
14 *110:10 0.0142243
15 *110:8 0.00839308
16 *110:6 0.00839308
17 *110:12 *13133:B 9.00922e-05
18 *13128:B *110:72 0.000138859
19 *13129:A3 *110:72 4.23566e-05
20 *13133:A *110:12 2.65879e-05
21 *13136:B *110:18 4.17736e-05
22 *13136:B *110:22 5.67058e-05
23 *13136:B *110:24 9.14823e-05
24 *13136:B *110:32 8.1796e-05
25 *13136:B *110:59 3.70187e-05
26 *13141:B1 *110:32 0
27 *13149:A *110:72 0
28 *13149:B *110:72 0.000501872
29 *52:10 *110:59 1.5769e-05
30 *60:10 *110:32 3.70187e-05
31 *64:8 *110:72 3.7122e-06
32 *70:8 *110:32 0.000169765
33 *73:37 *110:72 0
34 *74:10 *110:18 3.7122e-06
35 *74:10 *110:22 1.40958e-05
36 *74:10 *110:24 0.00010655
37 *74:10 *110:32 5.59116e-05
38 *74:10 *110:59 0
39 *75:10 *110:59 1.32939e-05
40 *75:27 *110:72 8.82392e-05
41 *82:27 *110:72 0.000141552
42 *83:10 *110:72 0
43 *106:50 *110:32 8.05936e-05
44 *106:50 *110:59 5.90075e-05
45 *106:54 *110:59 0.000129504
*RES
1 *13176:X *110:6 38 
2 *110:6 *110:8 164.596 
3 *110:8 *110:10 15 
4 *110:10 *110:12 190.24 
5 *110:12 *110:18 9.715 
6 *110:18 *110:22 1.11857 
7 *110:22 *110:24 2.05071 
8 *110:24 *110:32 37.3536 
9 *110:32 *13118:B 23 
10 *110:24 *13136:A_N 23 
11 *110:22 *13140:B 23 
12 *110:18 *110:59 34.8264 
13 *110:59 *13117:B 23 
14 *110:12 *110:72 46.1571 
15 *110:72 *13129:A2 23 
*END

*D_NET *111 0.0240365
*CONN
*I *13145:A2 I *D sky130_fd_sc_hd__a31o_1
*I *13154:A I *D sky130_fd_sc_hd__or2b_1
*I *13134:B I *D sky130_fd_sc_hd__or2_1
*I *13133:B I *D sky130_fd_sc_hd__nand2_1
*I *13177:X O *D sky130_fd_sc_hd__clkbuf_2
*CAP
1 *13145:A2 0
2 *13154:A 8.72395e-05
3 *13134:B 0
4 *13133:B 6.02111e-05
5 *13177:X 0.00179286
6 *111:49 0.000503224
7 *111:30 0.000661524
8 *111:21 0.000181248
9 *111:10 0.00863708
10 *111:8 0.00846668
11 *111:6 0.00179286
12 *13133:A *13133:B 0.000187129
13 *13133:A *111:21 0.000116314
14 *13133:A *111:30 2.55642e-05
15 *13135:B *13154:A 4.9662e-05
16 *13145:A1 *111:49 0.000224921
17 *39:18 *111:49 2.83357e-05
18 *68:25 *111:49 0
19 *106:18 *111:49 0.000495011
20 *107:33 *111:30 8.72173e-05
21 *107:33 *111:49 0.00054929
22 *110:12 *13133:B 9.00922e-05
*RES
1 *13177:X *111:6 46.9664 
2 *111:6 *111:8 15 
3 *111:8 *111:10 165.652 
4 *111:10 *13133:B 40.5271 
5 *111:10 *111:21 2.25786 
6 *111:21 *13134:B 38 
7 *111:21 *111:30 1.55357 
8 *111:30 *13154:A 39.0979 
9 *111:30 *111:49 28.92 
10 *111:49 *13145:A2 23 
*END

*D_NET *112 0.0457434
*CONN
*I *13163:A I *D sky130_fd_sc_hd__inv_2
*I *13162:A I *D sky130_fd_sc_hd__inv_2
*I *13161:A I *D sky130_fd_sc_hd__inv_2
*I *13178:X O *D sky130_fd_sc_hd__clkbuf_4
*CAP
1 *13163:A 0.000662776
2 *13162:A 8.66483e-05
3 *13161:A 0.000221431
4 *13178:X 0
5 *112:27 0.00124087
6 *112:16 0.0140917
7 *112:14 0.0143865
8 *112:8 0.00411981
9 *112:6 0.00311216
10 *13165:RESET_B *13162:A 1.24376e-05
11 *90:8 *112:27 0
12 *90:14 *13161:A 0.000187129
13 *91:8 *112:27 0.000181432
14 *96:8 *112:14 8.57485e-05
15 *100:47 *13162:A 2.32101e-05
16 *106:8 *112:14 0.000104849
17 *107:8 *112:8 0.00695428
18 *107:8 *112:14 0.000272456
*RES
1 *13178:X *112:6 38 
2 *112:6 *112:8 90.6975 
3 *112:8 *112:14 37.1954 
4 *112:14 *112:16 246.935 
5 *112:16 *13161:A 27.9093 
6 *112:16 *112:27 25.3571 
7 *112:27 *13162:A 39.8229 
8 *112:27 *13163:A 48.6264 
*END
